1667
CoiledCoil.xyz
N         10.53500       -4.93700       67.28300
C         11.65100       -4.42000       66.50000
C         11.15300       -3.86600       65.16800
O         10.13000       -4.32600       64.64500
C         12.69600       -5.51400       66.27000
N         11.86900       -2.87600       64.61900
C         11.43100       -2.28600       63.34000
C         11.34400       -3.29000       62.20100
O         10.38500       -3.24800       61.41900
C         12.49600       -1.20500       63.07500
C         13.64600       -1.58400       63.91200
C         13.07200       -2.21100       65.13600
N         12.31500       -4.20200       62.08900
C         12.28900       -5.16700       60.99300
C         11.07900       -6.09200       61.08500
O         10.61000       -6.59300       60.06200
C         13.58800       -5.97500       60.96700
N         10.56500       -6.33800       62.29300
C          9.32200       -7.09400       62.41200
C          8.16800       -6.31800       61.80100
O          7.25600       -6.90500       61.19900
C          9.02800       -7.41700       63.87500
C         10.18500       -8.14000       64.56500
O         10.74200       -9.09200       63.97100
O         10.54300       -7.75200       65.70200
N          8.18600       -4.99600       61.94200
C          7.16600       -4.20300       61.27200
C          7.36600       -4.24500       59.76500
O          6.41400       -4.48600       59.01300
C          7.18400       -2.76300       61.78700
C          5.93900       -1.96800       61.42500
C          4.66300       -2.62300       61.92600
O          4.70500       -3.30600       62.97600
O          3.61600       -2.45900       61.26600
N          8.60500       -4.03000       59.30500
C          8.87300       -3.97000       57.86700
C          8.40900       -5.24800       57.18300
O          7.70800       -5.21200       56.16500
C         10.36500       -3.72200       57.60000
C         10.72500       -2.26500       57.85100
C         10.70500       -4.11500       56.17400
C         12.21400       -2.00500       57.79000
N          8.80700       -6.39700       57.73000
C          8.41100       -7.67900       57.15900
C          6.89700       -7.77900       57.03500
O          6.37000       -8.17200       55.98900
C          8.96200       -8.80900       58.02500
C          9.05700      -10.14600       57.32900
C         10.23100      -10.96200       57.82600
O         10.83400      -10.58900       58.85800
O         10.55600      -11.97500       57.17300
N          6.17900       -7.41100       58.09800
C          4.72500       -7.53700       58.09600
C          4.10500       -6.74200       56.95000
O          3.26800       -7.25700       56.19700
C          4.16600       -7.07500       59.44600
C          2.64700       -7.07200       59.52700
C          2.13300       -6.11000       60.59800
N          0.88600       -5.47200       60.17100
C          0.75100       -4.17400       59.90700
N          1.78100       -3.35400       60.05000
N         -0.42200       -3.68700       59.51400
N          4.52700       -5.48700       56.78500
C          3.92400       -4.62900       55.77200
C          4.30700       -5.05200       54.35900
O          3.51900       -4.86900       53.42400
C          4.31900       -3.17900       56.03000
C          3.68400       -2.57300       57.28700
C          4.48400       -1.36000       57.78300
C          2.22100       -2.19400       57.03200
N          5.50500       -5.60300       54.17100
C          5.87000       -6.10100       52.84800
C          5.01500       -7.30000       52.47300
O          4.45500       -7.35200       51.37100
C          7.34900       -6.46600       52.80700
C          8.28300       -5.27600       52.87100
C          9.73500       -5.69200       52.97000
O         10.07300       -6.42800       53.91900
O         10.53300       -5.29700       52.09400
N          4.92000       -8.27700       53.38300
C          3.98700       -9.38900       53.23200
C          2.62000       -8.89200       52.79700
O          2.13000       -9.23900       51.71500
C          3.86500      -10.16200       54.54800
N          2.01100       -8.03800       53.62100
C          0.63700       -7.61100       53.38000
C          0.50200       -6.82500       52.07700
O         -0.50400       -6.96200       51.36800
C          0.14900       -6.78000       54.56400
C         -1.31700       -6.40200       54.50300
C         -1.79300       -5.80200       55.80800
O         -1.48300       -6.37000       56.87800
O         -2.45400       -4.75200       55.77000
N          1.49300       -5.98800       51.74100
C          1.35700       -5.18600       50.52300
C          1.45000       -6.04800       49.26600
O          0.68900       -5.84300       48.31500
C          2.40300       -4.07800       50.46300
C          2.18700       -3.00700       51.52700
O          1.16100       -2.98600       52.20200
N          3.16600       -2.13300       51.68900
N          2.39500       -6.99000       49.22300
C          2.55100       -7.80100       48.02000
C          1.27100       -8.56400       47.71300
O          0.82700       -8.60400       46.56000
C          3.73100       -8.76000       48.17500
C          4.16900       -9.40500       46.86600
C          5.45200      -10.22300       47.00000
O          6.02400      -10.27400       48.11200
O          5.89100      -10.81500       45.98900
N          0.65400       -9.15400       48.74200
C         -0.62600       -9.83300       48.56600
C         -1.67900       -8.87400       48.03500
O         -2.40300       -9.19700       47.08800
C         -1.08700      -10.45000       49.88600
N         -1.78800       -7.69100       48.64400
C         -2.66300       -6.66100       48.09000
C         -2.31100       -6.37700       46.63500
O         -3.18200       -6.41200       45.76000
C         -2.58000       -5.38600       48.92900
C         -3.24200       -5.53400       50.30100
C         -2.88200       -4.38800       51.24000
C         -4.74500       -5.67800       50.15200
N         -1.03100       -6.10600       46.35700
C         -0.57400       -5.92100       44.98100
C         -1.05900       -7.04800       44.07400
O         -1.61900       -6.79600       43.00200
C          0.95500       -5.83400       44.92600
C          1.57800       -4.59900       45.58400
C          2.06900       -3.56300       44.57700
O          1.62100       -3.59400       43.41200
O          2.90600       -2.71400       44.95200
N         -0.84800       -8.30400       44.47900
C         -1.29300       -9.40400       43.63100
C         -2.81300       -9.40700       43.50100
O         -3.35400       -9.51100       42.39400
C         -0.78600      -10.74500       44.16700
N         -3.52600       -9.26800       44.62100
C         -4.97700       -9.36900       44.54300
C         -5.56300       -8.24000       43.71100
O         -6.51700       -8.44900       42.95700
C         -5.59700       -9.37500       45.93500
C         -7.11300       -9.33900       45.89400
C         -7.74500       -9.42300       47.25400
O         -8.01000       -8.36000       47.84400
O         -7.95300      -10.55000       47.74400
N         -4.99200       -7.05100       43.80300
C         -5.53300       -5.94400       43.03200
C         -5.32500       -6.16200       41.54800
O         -6.21500       -5.86100       40.74900
C         -4.90200       -4.63100       43.47700
C         -5.45300       -4.16400       44.78100
O         -6.45100       -4.70600       45.25900
N         -4.82800       -3.16000       45.37000
N         -4.16200       -6.69200       41.16300
C         -3.93400       -6.99200       39.75400
C         -5.04400       -7.87300       39.18900
O         -5.54800       -7.60700       38.09600
C         -2.57500       -7.65600       39.57500
C         -1.40200       -6.72600       39.80600
C         -0.06500       -7.43600       39.68400
O          0.33900       -8.12100       40.65200
O          0.57400       -7.31700       38.61400
N         -5.44700       -8.91800       39.92700
C         -6.52400       -9.79500       39.45700
C         -7.82700       -9.02800       39.29300
O         -8.57100       -9.25800       38.33300
C         -6.76700      -10.94900       40.42900
C         -5.62400      -11.88600       40.70300
C         -6.13200      -13.03500       41.56300
N         -7.16000      -13.80600       40.86200
C         -7.68800      -14.94400       41.30900
N         -8.61200      -15.58300       40.59600
N         -7.29500      -15.44500       42.47100
N         -8.13700       -8.14100       40.24700
C         -9.38000       -7.38500       40.17600
C         -9.35500       -6.41700       39.00700
O        -10.36700       -6.25000       38.31400
C         -9.61700       -6.63800       41.48500
C         -9.64800       -7.49200       42.75300
C         -9.50400       -6.61900       44.01200
C        -10.92000       -8.25500       42.81200
N         -8.20500       -5.76500       38.78400
C         -8.03000       -4.91600       37.61000
C         -8.39400       -5.67000       36.34200
O         -9.11500       -5.15700       35.47800
C         -6.58500       -4.41900       37.51500
C         -6.02600       -3.75100       38.76000
C         -6.33300       -2.27500       38.84700
O         -7.30600       -1.82300       38.20900
O         -5.59100       -1.56300       39.55400
N         -7.90400       -6.90300       36.21700
C         -8.13900       -7.66100       34.99600
C         -9.61500       -8.00000       34.84100
O        -10.18400       -7.82400       33.75700
C         -7.27900       -8.92400       34.98000
C         -7.54100       -9.79400       33.76600
C         -6.33700      -10.64800       33.38600
N         -6.70900      -11.79600       32.55100
C         -6.82600      -11.76500       31.22600
N         -6.60800      -10.63700       30.56300
N         -7.16400      -12.86700       30.56300
N        -10.26200       -8.45200       35.92500
C        -11.69400       -8.75900       35.86900
C        -12.51600       -7.54300       35.42600
O        -13.39600       -7.64900       34.56100
C        -12.18400       -9.27600       37.22900
C        -13.69600       -9.61200       37.23600
C        -14.14100      -10.50700       38.40000
O        -13.27600      -11.00800       39.15200
O        -15.36800      -10.70800       38.55500
N        -12.25400       -6.38000       36.01200
C        -12.99700       -5.18500       35.60900
C        -12.69900       -4.83100       34.15400
O        -13.60400       -4.46500       33.39200
C        -12.68800       -4.02000       36.56100
C        -13.25300       -4.29800       37.94500
C        -13.26300       -2.70800       36.03800
C        -12.62200       -3.42100       39.04900
N        -11.43700       -4.96700       33.73300
C        -11.08600       -4.64200       32.35300
C        -11.80200       -5.54600       31.36400
O        -12.07000       -5.13300       30.23100
C         -9.57600       -4.73700       32.15900
C         -9.08900       -4.34900       30.77600
C         -7.58000       -4.15500       30.77700
N         -6.87500       -5.23500       31.47700
C         -6.30300       -5.11600       32.67700
N         -6.34600       -3.95900       33.32600
N         -5.68600       -6.15500       33.23100
N        -12.13400       -6.77000       31.77600
C        -12.84400       -7.69500       30.89900
C        -14.34100       -7.45800       30.91700
O        -15.02000       -7.68900       29.91500
C        -12.55700       -9.13800       31.30500
C        -11.45300       -9.70100       30.53300
C        -10.12600       -9.47500       30.72700
C        -11.55800      -10.56000       29.40100
N         -9.39300      -10.15200       29.78800
C        -10.25100      -10.82800       28.96200
C        -12.63100      -11.14500       28.72700
C         -9.98500      -11.65300       27.87700
C        -12.36900      -11.95200       27.64600
C        -11.05500      -12.20600       27.23200
N        -14.87600       -7.02800       32.05300
C        -16.31600       -6.86100       32.16300
C        -16.78200       -5.50400       31.64900
O        -17.89700       -5.39900       31.12700
C        -16.73800       -7.08300       33.61400
C        -16.69100       -8.55300       34.04000
C        -17.09600       -8.68800       35.48400
C        -17.60600       -9.37000       33.16800
N        -15.96100       -4.45900       31.78100
C        -16.28200       -3.20600       31.09800
C        -16.15700       -3.35800       29.58400
O        -17.00000       -2.85500       28.83100
C        -15.38100       -2.08200       31.59700
C        -15.59700       -1.70600       33.04500
C        -14.80300       -0.46700       33.45800
O        -13.55300       -0.48400       33.37800
O        -15.43900        0.53700       33.84900
N        -15.11400       -4.05800       29.12200
C        -14.91600       -4.25800       27.69000
C        -15.98000       -5.17000       27.09400
O        -16.32100       -5.03200       25.91400
C        -13.52300       -4.82800       27.42600
N        -16.50800       -6.10200       27.88000
C        -17.58000       -6.96000       27.41300
C        -18.89100       -6.23100       27.18600
O        -19.23900       -5.30700       27.92300
N        -21.26700       -6.60800       24.76300
C        -20.77700       -7.70300       23.92600
C        -20.23300       -8.85100       24.76700
O        -19.22700       -9.45700       24.41600
C        -19.69100       -7.19900       22.97400
C        -18.64300       -6.33000       23.65100
C        -17.30200       -6.37400       22.94600
O        -17.18200       -6.90700       21.84300
N        -16.27900       -5.82000       23.58800
N        -20.91300       -9.15900       25.87400
C        -20.35700      -10.09400       26.85400
C        -20.30600      -11.51800       26.31200
O        -19.35600      -12.25700       26.59200
C        -21.17600      -10.04900       28.14300
C        -20.42000      -10.04600       29.47500
C        -19.64100       -8.75400       29.65500
C        -21.37500      -10.25000       30.64200
N        -21.31300      -11.92200       25.53300
C        -21.31500      -13.27000       24.96500
C        -20.06200      -13.52500       24.13300
O        -19.50200      -14.62700       24.16100
C        -22.56900      -13.47500       24.11800
C        -23.87600      -13.06600       24.79700
C        -24.20900      -11.58300       24.64300
O        -23.34000      -10.72800       24.94500
O        -25.34600      -11.27600       24.22200
N        -19.60800      -12.51100       23.38900
C        -18.35400      -12.61200       22.64500
C        -17.18500      -12.89300       23.57500
O        -16.37700      -13.79200       23.32400
C        -18.09800      -11.31800       21.87000
C        -18.75700      -11.30000       20.51100
O        -19.37800      -12.31300       20.12900
O        -18.63900      -10.26700       19.81800
N        -17.07100      -12.10600       24.64800
C        -15.98200      -12.27400       25.59800
C        -15.98600      -13.66400       26.20700
O        -14.91800      -14.19900       26.52800
C        -16.07900      -11.21300       26.70300
C        -15.91300       -9.78700       26.21800
C        -14.44800       -9.41700       26.09400
C        -14.26300       -8.17200       25.24900
N        -14.64300       -8.44200       23.83900
N        -17.16500      -14.25800       26.38600
C        -17.22400      -15.58600       26.98100
C        -16.62900      -16.60700       26.02800
O        -15.77500      -17.41100       26.41100
C        -18.66700      -15.94700       27.36700
C        -18.70000      -17.35000       27.93900
C        -19.20200      -14.96000       28.37600
N        -17.08000      -16.58900       24.77100
C        -16.53300      -17.48500       23.76100
C        -15.01400      -17.40800       23.72600
O        -14.32500      -18.42700       23.82800
C        -17.12700      -17.14500       22.39300
C        -17.92200      -18.27600       21.76000
C        -18.76700      -17.82000       20.57000
O        -19.72500      -17.03800       20.76900
O        -18.47500      -18.24500       19.43000
N        -14.46300      -16.19900       23.62900
C        -13.01800      -16.10400       23.46400
C        -12.26700      -16.51900       24.72200
O        -11.12600      -16.98100       24.62400
C        -12.61900      -14.69900       23.03900
C        -12.85000      -13.64600       24.05500
C        -11.84800      -12.53000       23.89900
O        -10.66100      -12.84600       23.64300
O        -12.24000      -11.34700       24.01600
N        -12.88100      -16.38500       25.90200
C        -12.26700      -16.94800       27.10400
C        -12.24800      -18.46800       27.03900
O        -11.26900      -19.09700       27.46000
C        -13.00500      -16.48800       28.36300
C        -12.57400      -15.18500       29.04400
C        -13.52800      -14.88300       30.18000
C        -11.13700      -15.27500       29.55900
N        -13.32800      -19.07400       26.53500
C        -13.34000      -20.52300       26.37400
C        -12.18500      -20.96300       25.49400
O        -11.45300      -21.89800       25.83100
C        -14.67700      -20.97600       25.78800
C        -15.90600      -20.63400       26.63200
C        -17.15400      -20.76800       25.79900
C        -15.97800      -21.55300       27.82700
N        -11.98500      -20.27500       24.37100
C        -10.89500      -20.64800       23.47900
C         -9.54200      -20.44200       24.14900
O         -8.66500      -21.30500       24.06100
C        -10.98700      -19.86600       22.17100
O        -11.76800      -20.58200       21.21500
N         -9.36200      -19.30800       24.83700
C         -8.13600      -19.08000       25.60400
C         -7.91800      -20.16400       26.64300
O         -6.80200      -20.66500       26.80100
C         -8.17400      -17.71000       26.28400
C         -7.84800      -16.52600       25.37900
C         -6.92200      -15.53200       26.11400
C         -7.61400      -14.22300       26.49800
N         -7.84300      -13.33100       25.31600
N         -8.96300      -20.54000       27.37800
C         -8.76100      -21.60800       28.35900
C         -8.52900      -22.95000       27.66400
O         -7.77200      -23.79400       28.16400
C         -9.95500      -21.69900       29.30100
C        -10.04500      -20.50900       30.20700
O         -9.09000      -19.75800       30.31600
N        -11.18100      -20.32700       30.86100
N         -9.16800      -23.15000       26.52000
C         -8.95700      -24.36800       25.74900
C         -7.50600      -24.48400       25.33200
O         -6.87000      -25.51900       25.56100
C         -9.87000      -24.37300       24.52900
C         -9.69900      -25.59200       23.64300
C         -9.69900      -26.86400       24.18700
C         -9.55100      -25.46600       22.27000
C         -9.55000      -27.98100       23.39300
C         -9.40100      -26.57200       21.46700
C         -9.40300      -27.82900       22.03500
O         -9.25600      -28.93800       21.25000
N         -6.94600      -23.40500       24.77000
C         -5.52800      -23.40500       24.41800
C         -4.63400      -23.64300       25.63700
O         -3.60900      -24.33000       25.53600
C         -5.14800      -22.09500       23.72800
C         -3.66800      -21.89300       23.60300
N         -2.93600      -22.38100       22.54000
C         -2.78500      -21.25400       24.40700
C         -1.66300      -22.06000       22.70200
N         -1.54500      -21.37700       23.82700
N         -4.99000      -23.09200       26.80100
C         -4.11200      -23.27200       27.95900
C         -4.15400      -24.70900       28.47700
O         -3.13100      -25.23200       28.92900
C         -4.48000      -22.29800       29.07200
C         -4.09200      -20.83000       28.88100
C         -4.65100      -19.98300       30.03800
C         -2.57800      -20.69000       28.81400
N         -5.32500      -25.35300       28.42700
C         -5.45000      -26.72100       28.93700
C         -4.69200      -27.70600       28.06200
O         -4.12500      -28.68100       28.56100
C         -6.92200      -27.12100       29.04000
C         -7.37900      -27.47300       30.45800
C         -8.88800      -27.67300       30.57000
O         -9.54800      -27.84200       29.52000
O         -9.41200      -27.65700       31.70900
N         -4.67200      -27.47500       26.75300
C         -3.85100      -28.31100       25.88200
C         -2.36800      -28.07700       26.11000
O         -1.57100      -29.01000       25.97800
C         -4.22100      -28.03800       24.44300
C         -5.64100      -28.46500       24.14900
O         -6.15800      -29.37600       24.79400
N         -6.29200      -27.78700       23.21500
N         -1.97400      -26.84300       26.45400
C         -0.57300      -26.59500       26.79400
C         -0.19200      -27.29000       28.09000
O          0.90700      -27.85000       28.20000
C         -0.29700      -25.09700       26.90800
C          0.13700      -24.44300       25.60600
C          1.34600      -25.12400       24.97600
O          1.16000      -25.85900       23.97900
O          2.47600      -24.92900       25.48000
N         -1.06600      -27.22900       29.09600
C         -0.83300      -28.00700       30.30600
C         -0.57900      -29.45900       29.93300
O          0.39200      -30.07800       30.38400
C         -2.01800      -27.87900       31.27900
C         -1.88400      -28.91100       32.41400
C         -2.09200      -26.46400       31.86000
N         -1.43900      -30.01700       29.07800
C         -1.27500      -31.41500       28.69700
C          0.05000      -31.62000       27.97400
O          0.80700      -32.53300       28.30800
C         -2.45300      -31.88000       27.83900
C         -3.82800      -31.79400       28.53500
C         -3.86400      -32.44300       29.92100
O         -3.20900      -33.49100       30.12000
O         -4.55500      -31.90200       30.81700
N          0.37600      -30.75100       27.00900
C          1.66600      -30.87800       26.32600
C          2.81300      -30.90600       27.32400
O          3.63600      -31.82800       27.31700
C          1.87200      -29.73400       25.33800
C          3.08500      -29.88200       24.44700
C          3.18000      -28.73100       23.43100
N          3.91500      -27.59900       23.98700
C          5.21600      -27.39200       23.79900
N          5.92100      -28.23300       23.05600
N          5.81400      -26.34100       24.34900
N          2.87700      -29.89900       28.19800
C          3.99000      -29.81800       29.13600
C          3.99700      -31.00200       30.09300
O          5.06900      -31.50300       30.45900
C          3.93000      -28.50500       29.91600
C          3.98100      -27.23600       29.07300
C          3.61500      -26.04300       29.95400
C          5.35300      -27.04900       28.48000
N          2.81600      -31.46100       30.52300
C          2.77600      -32.62200       31.41400
C          3.43900      -33.82800       30.76500
O          4.11100      -34.61200       31.44000
C          1.33500      -32.96300       31.80200
C          0.79700      -32.22200       33.02600
C         -0.67200      -32.57400       33.28700
C         -1.22400      -31.86800       34.52600
N         -2.70100      -32.05800       34.67400
N          3.27200      -33.98600       29.44900
C          3.85300      -35.13600       28.75800
C          5.36000      -34.99600       28.58500
O          6.06400      -36.00600       28.43900
C          3.18400      -35.32800       27.39400
C          1.81600      -35.98200       27.46300
C          1.15100      -36.02100       26.09400
C          0.03400      -37.05000       26.08500
N          0.51300      -38.32700       26.67500
N          5.86500      -33.76100       28.56700
C          7.29900      -33.50000       28.51600
C          7.97900      -33.74700       29.85500
O          9.21000      -33.65200       29.93900
C          7.56000      -32.05800       28.05600
C          7.08800      -31.71500       26.63200
C          7.56900      -30.35900       26.15800
C          7.53400      -32.76800       25.66600
N          7.20600      -34.06700       30.88700
C          7.72100      -34.46200       32.19100
C          7.59700      -35.97700       32.29500
O          6.49000      -36.51600       32.40200
C          6.96300      -33.76000       33.32400
C          7.56200      -34.11200       34.68400
C          6.95200      -32.24600       33.09100
N          8.73600      -36.67100       32.25700
C          8.71900      -38.11700       32.38300
C          8.63100      -38.61900       33.81000
O          8.05500      -39.68300       34.05600
N          9.18400      -37.87300       34.76800
C          9.21700      -38.31100       36.15700
C          8.85000      -37.16900       37.09100
O          9.31100      -36.03700       36.92300
C         10.59700      -38.85500       36.53600
O         10.87600      -40.06100       35.85500
N          8.01900      -37.47900       38.08000
C          7.70600      -36.52000       39.11300
C          8.76300      -36.37900       40.18200
O          8.71400      -35.42300       40.95700
N          9.71700      -37.30000       40.24000
C         10.74900      -37.27900       41.27000
C         11.67900      -36.08000       41.10900
O         12.01500      -35.42800       42.10900
C         11.55000      -38.58300       41.25200
O         10.69300      -39.70000       41.07500
N         12.13500      -35.75700       39.89200
C         12.87100      -34.49600       39.73100
C         12.01800      -33.28400       40.03800
O         12.47700      -32.35800       40.72700
C         13.30000      -34.53100       38.25800
C         13.31600      -35.97700       37.90700
C         12.14900      -36.53900       38.64100
N         10.78100      -33.26800       39.52800
C          9.85000      -32.18300       39.81700
C          9.75700      -31.92400       41.31200
O          9.87000      -30.78100       41.76200
C          8.46600      -32.51100       39.26500
C          7.36400      -31.67800       39.90700
C          6.00500      -32.35100       39.84900
O          5.94200      -33.57000       39.55600
O          5.00000      -31.65500       40.10000
N          9.53200      -32.98000       42.09600
C          9.53900      -32.83400       43.54600
C         10.82800      -32.18900       44.02000
O         10.80800      -31.23600       44.81200
C          9.36000      -34.19200       44.21700
C          7.94700      -34.68200       44.14900
O          7.04400      -33.83800       43.97300
O          7.73700      -35.90400       44.27900
N         11.96700      -32.70100       43.55100
C         13.24200      -32.18900       44.04700
C         13.37900      -30.70400       43.75300
O         13.62400      -29.90500       44.66200
C         14.41500      -32.96200       43.44600
C         15.76000      -32.44600       43.95600
C         15.89200      -32.67200       45.45100
C         17.34000      -32.52000       45.91600
N         17.52800      -32.90700       47.34300
N         13.21400      -30.31500       42.48500
C         13.30300      -28.90300       42.10600
C         12.39400      -28.05600       42.98800
O         12.80300      -27.01500       43.50600
C         12.95700      -28.72000       40.61500
C         13.97400      -29.43400       39.71600
C         12.88800      -27.23400       40.25500
C         13.58700      -29.45300       38.22600
N         11.13600      -28.47500       43.15300
C         10.23100      -27.72500       44.02300
C         10.82500      -27.57300       45.41600
O         10.81700      -26.48600       46.00000
C          8.87100      -28.41300       44.11600
C          8.13000      -28.58700       42.79800
C          7.41400      -27.33900       42.33800
O          7.42900      -26.33200       43.07900
O          6.82900      -27.37300       41.23300
N         11.34300      -28.66500       45.96700
C         11.95200      -28.59300       47.28900
C         13.10600      -27.59900       47.32300
O         13.21300      -26.79400       48.25700
C         12.44100      -29.96600       47.71700
C         13.33900      -29.91800       48.93500
C         14.03900      -31.24100       49.17300
O         13.57100      -32.25600       48.62100
O         15.05900      -31.26500       49.90100
N         13.99000      -27.64500       46.32300
C         15.14700      -26.75300       46.33800
C         14.71600      -25.30200       46.19200
O         15.22000      -24.42000       46.90600
C         16.12800      -27.13200       45.23500
C         16.64000      -28.56400       45.37400
C         17.45000      -29.01800       44.15800
C         17.45300      -28.65900       46.61400
N         13.77400      -25.03300       45.28800
C         13.27900      -23.66600       45.14300
C         12.70600      -23.14400       46.45700
O         12.88400      -21.97000       46.79000
C         12.24100      -23.59400       44.02500
C         12.81500      -23.92200       42.64800
C         12.03900      -23.23900       41.53100
C         12.91300      -23.01500       40.30400
N         12.30000      -22.05400       39.34300
N         12.03300      -24.00300       47.22800
C         11.55400      -23.58000       48.54200
C         12.72100      -23.26100       49.47400
O         12.76200      -22.18900       50.09600
C         10.65500      -24.65300       49.14600
C          9.19200      -24.53600       48.73200
C          8.36200      -25.64100       49.36000
N          8.67800      -26.94200       48.78300
C          7.99300      -27.50900       47.79600
N          6.93600      -26.90200       47.27200
N          8.36300      -28.69300       47.33800
N         13.68700      -24.18000       49.57700
C         14.86400      -23.92300       50.40500
C         15.53400      -22.61700       50.01300
O         15.93600      -21.82400       50.87500
C         15.85200      -25.07700       50.28300
C         17.07700      -24.95300       51.17600
C         16.73300      -25.23400       52.63800
C         17.98100      -25.30100       53.52000
N         18.92000      -26.37100       53.07500
N         15.63900      -22.35800       48.71100
C         16.27400      -21.12700       48.25800
C         15.49700      -19.90900       48.75400
O         16.09200      -18.89900       49.16200
C         16.40600      -21.14200       46.72900
C         17.54200      -22.07800       46.31800
C         16.61800      -19.74200       46.18800
C         17.63100      -22.28400       44.81700
N         14.16200      -19.99300       48.76100
C         13.34900      -18.87800       49.25500
C         13.54200      -18.66700       50.75200
O         13.68600      -17.53000       51.21400
C         11.87400      -19.10900       48.94200
C         11.52300      -18.89400       47.48700
C         11.96000      -17.53400       46.99600
O         11.67400      -16.53100       47.69200
O         12.60100      -17.47300       45.92200
N         13.51900      -19.75400       51.52600
C         13.82100      -19.67900       52.95200
C         15.15500      -18.97700       53.19800
O         15.23700      -18.02000       53.97700
C         13.82800      -21.09500       53.53000
C         13.83700      -21.21100       55.04200
C         13.86100      -22.68700       55.43700
C         13.94200      -22.89300       56.94200
N         13.83300      -24.34100       57.30800
N         16.20900      -19.41500       52.50500
C         17.54500      -18.87500       52.74500
C         17.65800      -17.40800       52.35100
O         18.41400      -16.65000       52.97200
C         18.58100      -19.69700       51.98500
C         19.00900      -20.96900       52.70900
C         19.58600      -21.93500       51.73000
C         20.04700      -20.59900       53.75200
N         16.94000      -16.99600       51.31500
C         17.05400      -15.61700       50.86100
C         16.37500      -14.66800       51.83200
O         16.91100      -13.60100       52.12800
C         16.46800      -15.46900       49.46100
C         17.33600      -16.08800       48.37800
C         16.56600      -16.22800       47.05900
C         16.27200      -14.87000       46.45600
N         15.44300      -14.97000       45.20600
N         15.19600      -15.03700       52.33700
C         14.53400      -14.19200       53.32500
C         15.36500      -14.08800       54.59100
O         15.40700      -13.03100       55.22100
C         13.14500      -14.73000       53.65700
C         12.21400      -14.81700       52.46000
C         11.09500      -15.81400       52.71200
N         10.30400      -16.06300       51.50700
C          9.29200      -16.92100       51.43900
N          8.94000      -17.62300       52.50800
N          8.63200      -17.07700       50.30000
N         16.03000      -15.18100       54.98400
C         16.81100      -15.14900       56.21500
C         18.05700      -14.30500       56.03100
O         18.43100      -13.52400       56.91600
C         17.17700      -16.55800       56.66800
C         17.50600      -16.61500       58.14500
C         18.24800      -17.87300       58.54300
O         17.72800      -18.98600       58.30200
O         19.36100      -17.74400       59.09700
N         18.69500      -14.42400       54.87100
C         19.80800      -13.54600       54.56600
C         19.36700      -12.09800       54.53200
O         20.05300      -11.22700       55.07900
C         20.45500      -13.95900       53.26000
C         21.21500      -15.23700       53.41200
O         21.37400      -15.72700       54.53400
N         21.68600      -15.80000       52.29800
N         18.19500      -11.82000       53.95700
C         17.72500      -10.44100       53.98100
C         17.47600       -9.96500       55.41300
O         17.81200       -8.82700       55.74900
C         16.47800      -10.27600       53.11100
C         16.01500       -8.80800       52.91500
C         17.09100       -7.85800       52.34000
O         18.02900       -8.32300       51.65200
O         16.99700       -6.63100       52.57900
N         16.91400      -10.81700       56.28300
C         16.71800      -10.38300       57.67200
C         18.05000      -10.05500       58.33600
O         18.14700       -9.09800       59.11900
C         15.97500      -11.44300       58.49600
C         14.56600      -11.76500       58.03400
C         13.83900      -12.70100       59.00300
N         14.36800      -14.06500       58.94900
C         13.84700      -15.10500       59.59600
N         12.76800      -14.94900       60.35500
N         14.40700      -16.30600       59.48300
N         19.08900      -10.83200       58.03200
C         20.39700      -10.60000       58.64500
C         21.03300       -9.33200       58.09800
O         21.63400       -8.55300       58.85100
C         21.31300      -11.81300       58.41000
C         20.99900      -13.03200       59.28100
C         21.57600      -14.31800       58.69800
C         21.51300      -12.78700       60.68700
N         20.88400       -9.08400       56.79800
C         21.47200       -7.87000       56.23500
C         20.81200       -6.62900       56.81700
O         21.49000       -5.63600       57.10700
C         21.36100       -7.88000       54.71100
C         22.68200       -8.14900       54.00700
C         22.51400       -8.58600       52.56000
O         21.36200       -8.67600       52.08700
O         23.54400       -8.84400       51.89500
N         19.48900       -6.66700       57.00200
C         18.78000       -5.51300       57.55000
C         19.21800       -5.22500       58.97700
O         19.45400       -4.06400       59.34700
C         17.27000       -5.74400       57.51900
C         16.59200       -5.50800       56.18800
C         15.08000       -5.53300       56.37300
N         14.36400       -5.59500       55.10100
C         13.83000       -6.70300       54.59500
N         13.92700       -7.85400       55.25200
N         13.19300       -6.66100       53.43100
N         19.27300       -6.25500       59.81600
C         19.75300       -6.02500       61.16900
C         21.16600       -5.47900       61.14200
O         21.46700       -4.49200       61.82400
C         19.68100       -7.28900       62.02400
C         20.15100       -6.98900       63.46500
C         19.76900       -8.04000       64.48700
O         20.68200       -8.72800       64.99100
O         18.56700       -8.16900       64.80100
N         22.02800       -6.06200       60.31900
C         23.40800       -5.59700       60.26700
C         23.48100       -4.14400       59.83700
O         24.24500       -3.36200       60.41500
C         24.24000       -6.46600       59.32000
C         24.54100       -7.84700       59.89900
O         24.24700       -8.13500       61.06500
N         25.12900       -8.70800       59.07400
N         22.71600       -3.75900       58.81200
C         22.70700       -2.34500       58.43600
C         22.20700       -1.49000       59.59200
O         22.80900       -0.46600       59.94100
C         21.84300       -2.11000       57.20700
C         21.56200       -0.60100       56.98200
C         20.93000       -0.32700       55.62700
O         21.18800       -1.09900       54.67800
O         20.17400        0.65800       55.50600
N         21.10400       -1.91600       60.20300
C         20.52600       -1.19200       61.32300
C         21.53400       -1.01500       62.45200
O         21.72100        0.09600       62.96400
C         19.28900       -1.93500       61.80800
C         18.62900       -1.31400       62.98400
C         18.46000        0.01700       63.23000
C         18.05100       -2.00600       64.08500
N         17.79500        0.18900       64.41500
C         17.54600       -1.04100       64.96600
C         17.92400       -3.36000       64.41600
C         16.90500       -1.38000       66.15400
C         17.29100       -3.69700       65.59100
C         16.79000       -2.70900       66.45100
N         22.19000       -2.10100       62.86300
C         23.20900       -1.98200       63.90100
C         24.32300       -1.04300       63.47000
O         24.79400       -0.22500       64.26200
C         23.78900       -3.34700       64.24700
C         22.88100       -4.38800       64.89400
C         23.62000       -5.73400       64.92900
C         22.42000       -4.00100       66.27500
N         24.75000       -1.13100       62.21500
C         25.86800       -0.30200       61.78700
C         25.45200        1.15400       61.63400
O         26.19900        2.06200       62.01600
C         26.44100       -0.82900       60.47600
C         27.44100       -1.95800       60.63400
C         27.97900       -2.44400       59.29400
O         27.16800       -2.73900       58.38400
O         29.21800       -2.52000       59.14900
N         24.25300        1.39800       61.11000
C         23.89400        2.71600       60.61800
C         22.69100        3.37300       61.28500
O         22.38900        4.52600       60.95700
C         23.63500        2.64300       59.11600
C         24.87900        2.63700       58.27700
C         24.44000        2.90900       56.87200
N         23.24900        3.75500       56.89900
C         22.26500        3.69800       56.00800
N         21.22100        4.50900       56.12200
N         22.32100        2.82500       55.00900
N         21.97200        2.69200       62.16600
C         20.93800        3.35100       62.93600
C         19.53000        3.14800       62.40300
O         19.29600        2.58500       61.32700
N         18.56700        3.64000       63.18400
C         17.15800        3.32700       62.96900
C         16.44500        4.29500       62.02800
O         15.28200        4.05000       61.68900
C         16.40800        3.29200       64.30400
O         17.05400        2.46000       65.24900
N         17.10000        5.37800       61.60000
C         16.43700        6.33000       60.72100
C         16.03500        5.74300       59.38200
O         15.03500        6.16200       58.79400
N         16.79200        4.76200       58.89100
C         16.53700        4.13400       57.60100
C         15.33100        3.19500       57.64800
O         14.50700        3.23400       56.72600
C         17.78900        3.39500       57.11600
O         18.67200        3.12000       58.19700
N         15.17800        2.33600       58.67000
C         13.93000        1.55200       58.75400
C         12.68600        2.41500       58.89100
O         11.70900        2.21300       58.15800
C         14.14800        0.67200       59.99200
C         15.61300        0.56000       60.13400
C         16.17200        1.86800       59.66000
N         12.70200        3.38200       59.81400
C         11.50400        4.16400       60.11500
C         10.98400        4.92000       58.90200
O          9.77300        5.14100       58.78300
C         11.79600        5.13800       61.25200
C         12.08300        4.43300       62.54800
C         13.00600        5.21500       63.45100
O         13.27100        6.40400       63.17000
O         13.47700        4.62100       64.43900
N         11.87500        5.34200       58.00400
C         11.41800        5.94800       56.75600
C         10.84600        4.89100       55.82200
O          9.80200        5.10700       55.18900
C         12.56900        6.69700       56.08500
C         12.15800        8.06100       55.57400
O         11.17800        8.14200       54.80100
O         12.81700        9.05500       55.95500
N         11.51800        3.74000       55.72300
C         10.96900        2.63600       54.94700
C          9.60500        2.23900       55.48600
O          8.64400        2.08600       54.72500
C         11.92200        1.44300       54.96700
C         11.53900        0.34100       53.99700
C         12.22900       -0.97500       54.35100
C         13.74700       -0.82300       54.41800
N         14.43500       -1.97900       55.08500
N          9.49300        2.10300       56.81200
C          8.19900        1.79200       57.41400
C          7.17100        2.84500       57.04100
O          6.04100        2.51700       56.66700
C          8.32800        1.65400       58.93900
C          8.88100        0.27800       59.29300
C          6.98500        1.87700       59.60500
C          9.30100        0.14200       60.75100
N          7.54500        4.12500       57.12600
C          6.59800        5.18100       56.78800
C          6.10600        5.03000       55.35600
O          4.90500        5.14300       55.08300
C          7.22500        6.55300       56.99600
C          6.22800        7.56400       57.53300
C          5.54500        7.08800       58.81100
O          6.25500        6.72600       59.77700
O          4.29600        7.06600       58.84800
N          7.02300        4.78300       54.42100
C          6.60000        4.59300       53.04400
C          5.71600        3.36100       52.92100
O          4.69300        3.39200       52.22600
C          7.82100        4.49200       52.13500
C          7.47300        4.27500       50.67700
C          6.51400        5.32400       50.12900
O          6.75800        6.53700       50.33300
O          5.51100        4.92700       49.49400
N          6.06600        2.27800       53.63100
C          5.30100        1.03900       53.52100
C          3.89800        1.18100       54.09300
O          2.96300        0.55700       53.57000
C          6.02400       -0.10900       54.21600
C          7.19300       -0.67900       53.42300
C          8.00100       -1.64100       54.29400
C          6.67600       -1.36700       52.18100
N          3.72600        1.97400       55.16300
C          2.38400        2.16500       55.70700
C          1.55200        3.11900       54.85400
O          0.32300        2.98500       54.81100
C          2.45800        2.64100       57.16500
C          3.31400        3.85900       57.40100
C          3.79700        3.94400       58.85500
C          2.70600        4.42200       59.80500
N          3.27300        5.02800       61.04800
N          2.18500        4.06400       54.15200
C          1.43600        4.85500       53.18100
C          0.94600        3.97500       52.03500
O         -0.23000        4.03500       51.65300
C          2.28800        6.01000       52.65000
C          1.50300        7.04900       51.82000
C          2.37000        7.70400       50.73900
N          2.76700        6.74000       49.71100
C          2.00000        6.37300       48.68400
N          0.78700        6.89100       48.53700
N          2.44100        5.48200       47.80200
N          1.83400        3.14900       51.46800
C          1.41800        2.31100       50.34000
C          0.37900        1.29700       50.78900
O         -0.58400        1.02200       50.06600
C          2.62900        1.61200       49.71300
C          2.30900        0.74100       48.48800
C          2.05900        1.57100       47.23200
C          1.68400        0.67400       46.05200
N          1.53200        1.43700       44.79200
N          0.54000        0.76000       52.00200
C         -0.44500       -0.17200       52.54200
C         -1.83900        0.45600       52.53300
O         -2.79200       -0.12600       51.99600
C         -0.00500       -0.60800       53.94700
C         -0.98600       -1.56100       54.62100
O         -1.72400       -1.16900       55.52900
N         -0.98500       -2.81800       54.19300
N         -1.96100        1.67900       53.05900
C         -3.25300        2.35700       53.06800
C         -3.76000        2.58600       51.65700
O         -4.94700        2.38500       51.37200
C         -3.15100        3.70100       53.79200
C         -2.68400        3.63400       55.21800
C         -2.27000        5.02500       55.68200
N         -1.11200        4.99700       56.56900
C         -0.21300        5.97400       56.63800
N         -0.33900        7.04200       55.86300
N          0.81400        5.88600       57.47400
N         -2.88100        3.04300       50.76500
C         -3.26500        3.20500       49.36700
C         -3.77000        1.89300       48.79400
O         -4.81700        1.84700       48.13200
C         -2.07600        3.71500       48.55300
C         -2.19900        3.45500       47.05400
C         -0.87200        3.56900       46.31000
O         -0.00800        4.36800       46.73500
O         -0.69500        2.85200       45.29900
N         -3.02900        0.81000       49.03600
C         -3.40000       -0.47400       48.45100
C         -4.75200       -0.92900       48.96400
O         -5.57200       -1.44200       48.19600
C         -2.33700       -1.53600       48.74900
C         -1.01900       -1.43800       47.97300
C         -0.04700       -2.55400       48.38800
C         -1.25000       -1.43300       46.46100
N         -5.01700       -0.72800       50.25500
C         -6.28500       -1.18200       50.80900
C         -7.44000       -0.33700       50.29100
O         -8.52000       -0.86300       50.00500
C         -6.22800       -1.15700       52.33700
C         -5.29500       -2.21500       52.94100
C         -5.15000       -2.04300       54.44200
C         -5.04100       -3.38000       55.14400
N         -4.53400       -3.21900       56.53600
N         -7.22800        0.97100       50.15800
C         -8.27100        1.83500       49.61600
C         -8.67500        1.38200       48.22100
O         -9.86800        1.27000       47.90700
C         -7.78400        3.28500       49.59200
C         -8.89900        4.31400       49.55000
C         -9.66200        4.40000       50.86400
O         -9.21200        3.79000       51.86100
O        -10.71100        5.08000       50.90200
N         -7.68200        1.09700       47.37500
C         -7.94700        0.67900       46.00300
C         -8.64400       -0.67300       45.96500
O         -9.60500       -0.86800       45.21100
C         -6.63200        0.63300       45.22100
C         -6.79100        0.18700       43.76200
C         -7.51200        1.22900       42.93200
C         -6.64700        2.45600       42.67200
N         -7.21600        3.29400       41.56500
N         -8.15500       -1.62100       46.76000
C         -8.80100       -2.92000       46.89400
C        -10.29600       -2.75800       47.16300
O        -11.13300       -3.38500       46.50900
C         -8.10100       -3.69700       48.02100
C         -8.46000       -5.18000       48.04700
O         -9.23100       -5.63700       48.89900
N         -7.87200       -5.94000       47.13200
N        -10.65400       -1.88600       48.10600
C        -12.06000       -1.73900       48.45900
C        -12.83700       -1.11300       47.31600
O        -13.97100       -1.51300       47.03000
C        -12.19300       -0.90600       49.73600
C        -13.50200       -1.10300       50.48500
C        -13.59600       -0.16700       51.69700
C        -14.90900       -0.35500       52.44600
N        -16.10000       -0.26300       51.53800
N        -12.22800       -0.15400       46.62800
C        -12.85800        0.43000       45.45300
C        -13.01900       -0.59800       44.33300
O        -14.10000       -0.73200       43.74200
C        -12.02500        1.62200       45.00100
C        -12.10800        1.94800       43.53800
C        -11.11400        3.01800       43.15800
O        -11.07400        4.06500       43.84100
O        -10.35400        2.80200       42.19500
N        -11.95100       -1.33200       44.02600
C        -12.00700       -2.32700       42.96000
C        -13.05900       -3.37600       43.25600
O        -13.87100       -3.72700       42.39100
C        -10.64300       -2.98900       42.79700
C         -9.60200       -2.08600       42.15100
C         -8.26500       -2.77700       42.01400
C        -10.11000       -1.64100       40.81600
N        -13.04900       -3.90200       44.47500
C        -14.04500       -4.89500       44.85300
C        -15.44900       -4.31000       44.79700
O        -16.39700       -5.01100       44.42700
C        -13.74400       -5.43400       46.25700
C        -12.50100       -6.33000       46.37700
C        -12.22200       -6.70900       47.85600
C        -11.24600       -7.90900       48.01900
N        -10.61400       -7.95300       49.39000
N        -15.60400       -3.02600       45.15000
C        -16.92100       -2.39900       45.06200
C        -17.38500       -2.29000       43.62000
O        -18.56600       -2.50900       43.32500
C        -16.90800       -1.01500       45.70100
C        -17.13700       -1.01000       47.18800
C        -17.31500        0.39200       47.71400
O        -17.27400        1.34100       46.89800
O        -17.50200        0.54500       48.93700
N        -16.47000       -1.93700       42.71500
C        -16.80800       -1.84000       41.30200
C        -17.26200       -3.18800       40.73600
O        -18.18300       -3.25100       39.91200
C        -15.60300       -1.31600       40.52600
C        -15.97100       -0.67000       39.19000
C        -14.74600       -0.05600       38.52100
C        -15.05800        0.38200       37.09600
N        -13.83300        0.77100       36.33800
N        -16.61400       -4.27600       41.14200
C        -16.96900       -5.57400       40.57400
C        -18.37500       -5.97700       40.98600
O        -19.15500       -6.47500       40.16400
C        -15.93800       -6.63200       40.98500
C        -14.62800       -6.36400       40.26000
C        -16.45100       -8.02000       40.65000
C        -13.52600       -7.25300       40.68300
N        -18.72100       -5.79400       42.26400
C        -20.08000       -6.10600       42.69000
C        -21.09900       -5.33700       41.85700
O        -22.09600       -5.90500       41.38800
C        -20.26600       -5.80200       44.17400
C        -21.72800       -5.71000       44.55500
C        -22.52900       -6.84500       44.59300
C        -22.31400       -4.48500       44.85400
C        -23.86900       -6.76500       44.92600
C        -23.65400       -4.39700       45.19100
C        -24.42400       -5.53900       45.22500
O        -25.75200       -5.45200       45.56100
N        -20.85400       -4.04000       41.65100
C        -21.72900       -3.24900       40.79500
C        -21.73900       -3.77600       39.36400
O        -22.79900       -3.84000       38.72700
C        -21.30800       -1.77900       40.81900
C        -21.74500       -1.03400       42.06100
C        -21.70900        0.47100       41.81300
N        -20.40400        0.89300       41.31900
C        -19.34100        1.07800       42.10100
N        -19.43500        0.88000       43.40800
N        -18.18700        1.46500       41.58400
N        -20.56900       -4.14200       38.83300
C        -20.51700       -4.67100       37.47400
C        -21.29000       -5.97700       37.36500
O        -22.04400       -6.18500       36.40700
C        -19.06500       -4.86500       37.03800
C        -18.46400       -3.58500       36.45400
C        -17.01300       -3.78500       36.08300
C        -19.24800       -3.13800       35.25700
N        -21.12600       -6.86200       38.35000
C        -21.81400       -8.14800       38.31500
C        -23.32400       -7.96500       38.23200
O        -23.99700       -8.65500       37.46000
C        -21.42800       -8.97900       39.54000
C        -20.38100      -10.05900       39.25100
C        -19.56500      -10.45300       40.48300
C        -20.42800      -10.87600       41.66300
N        -19.59000      -11.13400       42.88200
N        -23.87200       -7.03500       38.99900
C        -25.30800       -6.80500       38.97700
C        -25.81000       -6.36200       37.60600
O        -27.01400       -6.20900       37.40100
C        -25.68700       -5.77000       40.02300
C        -25.52600       -6.27100       41.43400
C        -26.65100       -5.80400       42.32700
O        -26.52500       -4.71400       42.92100
O        -27.67200       -6.51900       42.41400
N        -28.30000       -8.70400       38.52400
C        -29.33900       -9.36400       37.74000
C        -28.76300      -10.02900       36.49800
O        -29.50700      -10.44900       35.61200
C        -30.42200       -8.36400       37.33500
N        -27.43900      -10.11700       36.43400
C        -26.75500      -10.69500       35.29000
C        -26.36600      -12.13700       35.55900
O        -25.91400      -12.47900       36.65300
N        -26.54700      -12.98100       34.54400
C        -26.16400      -14.38500       34.62000
C        -24.84600      -14.67600       33.92400
O        -24.02400      -15.42900       34.45800
C        -27.26200      -15.26400       34.02200
C        -28.53000      -15.25800       34.84800
C        -28.28700      -15.70200       36.27800
O        -27.39100      -16.50500       36.54900
N        -29.08100      -15.17300       37.20400
N        -24.63300      -14.09600       32.74100
C        -23.34400      -14.21900       32.07100
C        -22.20100      -13.76900       32.96500
O        -21.10200      -14.33000       32.89100
C        -23.33300      -13.40000       30.78000
C        -24.13900      -13.90300       29.58600
C        -23.86200      -13.02400       28.37800
C        -23.80200      -15.35200       29.29400
N        -22.44200      -12.76700       33.81700
C        -21.35700      -12.13800       34.56000
C        -20.61600      -13.14600       35.44200
O        -19.38000      -13.13700       35.49700
C        -21.90500      -10.96000       35.37700
C        -21.91700       -9.59700       34.62400
C        -23.27100       -9.22500       34.00600
O        -23.93200      -10.11500       33.43200
O        -23.67400       -8.03800       34.09500
N        -21.34500      -14.04300       36.11400
C        -20.68400      -15.05000       36.94500
C        -19.89700      -16.03800       36.09900
O        -18.76300      -16.40300       36.44600
C        -21.71400      -15.79200       37.78200
C        -22.72400      -14.86500       38.38700
O        -22.29700      -13.82700       38.93400
O        -23.93600      -15.16200       38.29800
N        -20.50000      -16.51000       35.00500
C        -19.77500      -17.33400       34.04200
C        -18.44400      -16.69000       33.68100
O        -17.40000      -17.35200       33.67200
C        -20.62800      -17.53800       32.78700
C        -19.96000      -18.35100       31.67300
C        -20.39100      -19.81100       31.71200
C        -20.00400      -20.55800       30.43600
N        -20.24100      -22.03500       30.54300
N        -18.46300      -15.38400       33.40300
C        -17.22700      -14.67800       33.08600
C        -16.28400      -14.71800       34.27700
O        -15.07000      -14.88200       34.12100
C        -17.52400      -13.23300       32.65000
C        -16.23300      -12.51700       32.25900
C        -18.50500      -13.22100       31.49900
N        -16.82700      -14.58700       35.48400
C        -15.98800      -14.64600       36.67100
C        -15.26900      -15.98500       36.74700
O        -14.03500      -16.04800       36.81100
C        -16.83700      -14.41100       37.91600
C        -16.02300      -14.30000       39.17000
C        -16.77300      -13.57900       40.26000
O        -17.97700      -13.86000       40.42700
O        -16.16600      -12.72300       40.93700
N        -16.03400      -17.07200       36.72000
C        -15.44100      -18.40200       36.79000
C        -14.38700      -18.60000       35.71000
O        -13.25800      -19.01200       35.99300
C        -16.53200      -19.45500       36.67000
C        -17.02400      -19.98000       38.00000
C        -17.61800      -21.36900       37.87200
O        -17.72700      -21.85300       36.72700
O        -17.96600      -21.97900       38.90600
N        -14.73000      -18.26800       34.46500
C        -13.82500      -18.54900       33.35400
C        -12.52700      -17.77100       33.48800
O        -11.46200      -18.26000       33.10000
C        -14.50500      -18.23600       32.02000
C        -15.57500      -19.22400       31.53200
C        -16.42000      -18.59100       30.44300
C        -14.95500      -20.51400       31.03100
N        -12.59400      -16.55200       34.02200
C        -11.37000      -15.80500       34.27900
C        -10.58000      -16.44000       35.40600
O         -9.34600      -16.45700       35.38200
C        -11.69700      -14.34400       34.63700
C        -11.80400      -13.32700       33.49500
C        -12.38800      -12.02600       33.99300
C        -10.45200      -13.06800       32.83800
N        -11.28100      -16.90600       36.43100
C        -10.62300      -17.60800       37.51500
C         -9.92000      -18.85900       36.98800
O         -8.73900      -19.09500       37.28000
C        -11.66400      -17.94400       38.57900
O        -11.07300      -18.57200       39.69000
N        -10.62900      -19.65400       36.19400
C        -10.01400      -20.82900       35.56700
C         -8.81800      -20.42100       34.72100
O         -7.74300      -21.01800       34.81600
C        -11.04800      -21.55200       34.72500
C        -10.59000      -22.94100       34.17500
C        -11.67100      -23.51600       33.29400
C        -11.39800      -24.99500       32.93500
N        -12.67700      -25.73000       32.77600
N         -8.97800      -19.35600       33.92800
C         -7.88400      -18.84400       33.11900
C         -6.68100      -18.47500       33.97100
O         -5.53700      -18.66000       33.54300
C         -8.35900      -17.62800       32.32100
C         -7.24400      -16.97800       31.52700
O         -6.58000      -16.07300       31.99800
N         -7.05600      -17.42400       30.30700
N         -6.91500      -17.93000       35.16800
C         -5.80900      -17.59200       36.06500
C         -5.07300      -18.84600       36.51400
O         -3.83700      -18.89900       36.46700
C         -6.34200      -16.80500       37.26600
C         -5.33000      -16.40400       38.33700
C         -4.34600      -15.44800       38.08800
C         -5.39700      -16.94100       39.61400
C         -3.43100      -15.05800       39.08700
C         -4.49100      -16.55600       40.61600
C         -3.51100      -15.62000       40.34300
O         -2.61700      -15.25400       41.32900
N         -5.81700      -19.88900       36.88800
C         -5.18700      -21.10600       37.39600
C         -4.42500      -21.84500       36.29800
O         -3.31400      -22.34300       36.53000
C         -6.24700      -22.00900       38.02000
C         -6.98500      -21.37900       39.16600
N         -8.36200      -21.39500       39.26200
C         -6.53800      -20.73500       40.27300
C         -8.73300      -20.78200       40.37200
N         -7.64600      -20.36900       41.00300
N         -5.00500      -21.93400       35.10000
C         -4.30900      -22.55000       33.97300
C         -3.05600      -21.76600       33.61700
O         -1.99400      -22.34600       33.36300
C         -5.24200      -22.64200       32.75900
C         -6.30200      -23.72100       32.91400
C         -7.40400      -23.58000       31.87000
C         -5.65600      -25.09500       32.77800
N         -3.16600      -20.44400       33.57200
C         -1.98200      -19.61000       33.40900
C         -0.90500      -19.98100       34.42500
O          0.25000      -20.23500       34.06700
C         -2.36300      -18.14100       33.55400
C         -1.26700      -17.16700       33.17600
C         -1.22500      -16.89600       31.68700
O         -2.20300      -17.24700       30.99000
O         -0.21500      -16.33000       31.21700
N         -1.26400      -20.01700       35.70500
C         -0.26600      -20.36900       36.70600
C          0.28200      -21.77000       36.45900
O          1.48500      -22.01400       36.61900
C         -0.87400      -20.25400       38.09700
C         -1.18300      -18.81700       38.47100
O         -0.69400      -17.87900       37.83800
N         -2.00800      -18.63500       39.49300
N         -0.57500      -22.69400       36.02800
C         -0.12300      -24.07400       35.86700
C          0.84000      -24.20800       34.69400
O          1.84800      -24.91100       34.79900
C         -1.32400      -24.99800       35.71100
C         -1.00000      -26.47600       35.59100
C         -0.41900      -27.05400       36.86300
O         -0.46400      -26.36900       37.91000
O          0.08600      -28.19400       36.82200
N          0.56900      -23.52200       33.57800
C          1.48600      -23.57000       32.43900
C          2.86300      -23.06700       32.84100
O          3.88700      -23.61100       32.41200
C          0.93600      -22.75300       31.25800
C          1.98200      -22.67000       30.16200
C         -0.33900      -23.36700       30.70300
N          2.91100      -22.00500       33.65000
C          4.19100      -21.41600       34.03500
C          4.92200      -22.29800       35.04200
O          6.14600      -22.44600       34.96900
C          3.98300      -20.01100       34.60800
C          3.04600      -19.12800       33.79200
C          3.75400      -18.16700       32.84500
O          3.53500      -16.93900       32.97800
O          4.50800      -18.63500       31.96100
N          4.19300      -22.86600       36.00400
C          4.78800      -23.88300       36.86100
C          5.48200      -24.94500       36.02000
O          6.67400      -25.20600       36.19800
C          3.73300      -24.51700       37.76600
C          4.32200      -25.08300       39.05900
C          3.32500      -25.95500       39.79100
N          3.00500      -27.15700       39.02600
C          3.62600      -28.32300       39.17500
N          4.60400      -28.44400       40.06600
N          3.27000      -29.36900       38.43700
N          4.76600      -25.52800       35.05400
C          5.37800      -26.53800       34.19800
C          6.44900      -25.96100       33.28600
O          7.23600      -26.72600       32.72500
C          4.31500      -27.24000       33.35400
C          3.25900      -27.97600       34.17600
C          2.02900      -28.23700       33.34300
C          3.80500      -29.28200       34.71400
N          6.50400      -24.64100       33.11700
C          7.58500      -24.05900       32.32800
C          8.85300      -23.86400       33.15100
O          9.95800      -23.97400       32.60800
C          7.14200      -22.73200       31.70400
C          6.33600      -22.89300       30.41100
C          5.98600      -21.55700       29.74800
C          5.38900      -21.79800       28.36600
N          5.00300      -20.54500       27.67400
N          8.72500      -23.59600       34.45400
C          9.89400      -23.48700       35.32400
C         10.58800      -24.82300       35.54600
O         11.60700      -24.87400       36.24700
C          9.49500      -22.88300       36.67300
C          8.97400      -21.45800       36.58200
C          9.54600      -20.57800       37.68600
C          9.48200      -19.10000       37.29800
N         10.21000      -18.22700       38.25500
N         10.05400      -25.89500       34.97200
C         10.58500      -27.24100       35.10600
C         11.22400      -27.73500       33.81900
O         12.38000      -28.17000       33.82400
C          9.46200      -28.20200       35.52500
C          9.05000      -28.33000       36.99400
C          8.85700      -26.98500       37.67000
C          7.78100      -29.16600       37.10600
N         10.49300      -27.66600       32.71200
C         10.98200      -28.12900       31.42400
C         11.78900      -27.02000       30.75700
O         12.76300      -26.52200       31.32400
C          9.80900      -28.60000       30.51500
C         10.33100      -29.10700       29.18100
C          8.97200      -29.68100       31.20800
N         16.14400      -27.96100       27.69800
C         16.10300      -27.93900       29.14900
C         16.16000      -29.33100       29.75000
O         15.65200      -30.28400       29.15200
N         16.77400      -29.45300       30.93600
C         16.95400      -30.74900       31.59200
C         16.70400      -30.65500       33.09700
O         17.34400      -29.83500       33.78300
C         18.36000      -31.29000       31.31300
O         18.72500      -32.28600       32.25100
N         15.80000      -31.47700       33.63800
C         15.48100      -31.38500       35.07400
C         16.67700      -31.58900       35.99200
O         16.69500      -31.03700       37.10200
C         14.43800      -32.49400       35.27200
C         13.82500      -32.69300       33.89600
C         14.95600      -32.45900       32.93100
N         17.68100      -32.34000       35.56700
C         18.83000      -32.60700       36.43200
C         19.88000      -31.50000       36.33000
O         20.67600      -31.30600       37.24300
C         19.46900      -33.95300       36.09700
C         18.63300      -35.21100       36.45000
C         18.51400      -35.44400       37.95200
O         19.39200      -34.96900       38.70200
O         17.53100      -36.07200       38.39000
N         19.90500      -30.80800       35.20300
C         20.76900      -29.66900       35.03600
C         20.24200      -28.59600       35.95800
O         20.93400      -27.78700       36.57100
C         20.82500      -29.07900       33.60700
C         21.57500      -29.97900       32.63700
O         22.26900      -30.93100       33.06500
N         21.46500      -29.70600       31.28400
C         20.68800      -28.63600       30.72300
N         18.91800      -28.59100       36.05200
C         18.21700      -27.63700       36.90600
C         18.53800      -27.89700       38.38000
O         18.90300      -26.98600       39.12200
C         16.71200      -27.71600       36.65400
C         15.87400      -26.76600       37.48500
C         15.94700      -25.32800       37.00300
O         15.18300      -24.48700       37.53100
O         16.76300      -25.03200       36.10200
N         18.42400      -29.15600       38.80600
C         18.74600      -29.48600       40.19000
C         20.19800      -29.13900       40.49200
O         20.50500      -28.58600       41.55100
C         18.44300      -30.96000       40.47100
C         16.93800      -31.20100       40.59900
C         19.19900      -31.44100       41.66600
C         16.51300      -32.67300       40.16700
N         21.10100      -29.42800       39.55000
C         22.50700      -29.05500       39.69200
C         22.65400      -27.56000       39.95500
O         23.35400      -27.14000       40.87900
C         23.26100      -29.46800       38.42100
C         24.75200      -29.11500       38.42400
C         25.42800      -29.47600       37.09100
C         26.90900      -29.11300       37.09500
N         27.57900      -29.36600       35.78900
N         21.94500      -26.73500       39.18400
C         22.03600      -25.29300       39.38800
C         21.52900      -24.89900       40.77000
O         22.22600      -24.21900       41.53100
C         21.25300      -24.55600       38.30300
C         21.05400      -23.07300       38.59000
C         22.35300      -22.30900       38.67400
O         23.36200      -22.77900       38.12300
O         22.37400      -21.23100       39.30800
N         20.31300      -25.32000       41.10800
C         19.69800      -24.91600       42.36300
C         20.52300      -25.36000       43.56100
O         20.58800      -24.65900       44.57900
C         18.29300      -25.48800       42.45800
C         17.32400      -25.02800       41.38900
C         16.06700      -25.82500       41.54700
C         17.03300      -23.53100       41.52800
N         21.15700      -26.51700       43.47200
C         21.97900      -26.93000       44.59800
C         23.23600      -26.07600       44.71600
O         23.67600      -25.78900       45.83200
C         22.29600      -28.42000       44.47700
C         21.06500      -29.27600       44.75700
C         21.34500      -30.76600       44.68700
O         22.14600      -31.18300       43.82100
O         20.75800      -31.52000       45.49500
N         23.80600      -25.62200       43.59600
C         24.91200      -24.67000       43.69000
C         24.44200      -23.35900       44.30600
O         25.11600      -22.80400       45.18200
C         25.53000      -24.42400       42.32000
C         26.74000      -23.50700       42.35900
C         27.92200      -24.10800       43.12600
O         28.07300      -25.34700       43.11500
O         28.70200      -23.34300       43.74400
N         23.27200      -22.86500       43.88800
C         22.73400      -21.65000       44.50400
C         22.54100      -21.82100       46.00400
O         22.77200      -20.88600       46.77500
C         21.41100      -21.27100       43.85800
C         21.54300      -20.90600       42.37700
C         20.22200      -20.48300       41.77400
O         19.25600      -20.36600       42.54500
O         20.14100      -20.29100       40.53300
N         22.09600      -23.00300       46.43700
C         21.93100      -23.22900       47.86900
C         23.27800      -23.15300       48.57200
O         23.38500      -22.57200       49.65700
C         21.22400      -24.56600       48.14200
C         19.76100      -24.48600       47.71000
C         21.31800      -24.91900       49.62600
C         19.02600      -25.80700       47.83800
N         24.33400      -23.71700       47.96300
C         25.67000      -23.59000       48.56200
C         26.06500      -22.12700       48.72300
O         26.56900      -21.72400       49.78200
C         26.71100      -24.32500       47.71600
C         26.93500      -25.77400       48.12300
C         27.62700      -26.59000       47.01900
N         26.99100      -27.89300       46.84500
C         26.39200      -28.30800       45.73100
N         26.35000      -27.54100       44.64600
N         25.84400      -29.51200       45.70100
N         25.80700      -21.30200       47.69700
C         26.16800      -19.88500       47.77400
C         25.39600      -19.17400       48.87800
O         25.96000      -18.36700       49.63100
C         25.89700      -19.19400       46.43700
C         26.78800      -19.63800       45.29200
C         26.42000      -18.93300       43.99600
O         25.23700      -18.53900       43.84400
O         27.30900      -18.75800       43.13800
N         24.09400      -19.43900       48.96500
C         23.25800      -18.80600       49.97400
C         23.65400      -19.24000       51.37800
O         23.66000      -18.41700       52.30200
C         21.79000      -19.11700       49.69600
C         21.20600      -18.33300       48.50800
C         19.81900      -18.83000       48.20500
C         21.14500      -16.81100       48.76600
N         23.98400      -20.52600       51.56400
C         24.43600      -20.97900       52.87500
C         25.77300      -20.35100       53.25000
O         25.98100      -19.97500       54.41000
C         24.53500      -22.50400       52.90000
C         23.21200      -23.18300       52.72600
C         23.32200      -24.69000       52.76000
O         24.39400      -25.23100       52.39900
O         22.33200      -25.32700       53.17400
N         26.69400      -20.24200       52.28600
C         27.93500      -19.51100       52.51800
C         27.65200      -18.06600       52.91900
O         28.24300      -17.55400       53.87200
C         28.80500      -19.54200       51.26500
C         30.04500      -20.40800       51.37600
C         30.90700      -20.35900       50.12300
O         30.36600      -20.03400       49.04000
O         32.12500      -20.64100       50.22600
N         26.77000      -17.38400       52.17000
C         26.39100      -16.00400       52.49300
C         25.72900      -15.92900       53.85700
O         26.03000      -15.03700       54.65800
C         25.44200      -15.45300       51.41900
C         24.98900      -13.99200       51.57000
C         26.08700      -13.03300       51.14900
C         25.56900      -11.60600       50.97300
N         26.70400      -10.62000       50.84600
N         24.81500      -16.85400       54.13700
C         24.19500      -16.88500       55.45200
C         25.25400      -16.89900       56.54400
O         25.19300      -16.13200       57.51300
C         23.29400      -18.10700       55.56000
C         22.38300      -18.02700       56.73500
O         22.57100      -18.73300       57.71400
N         21.39600      -17.13000       56.66500
N         26.26400      -17.74600       56.38200
C         27.26900      -17.85900       57.42900
C         28.04500      -16.56100       57.59300
O         28.29200      -16.12200       58.72200
C         28.20800      -19.02200       57.12800
C         27.55500      -20.39800       57.25900
C         27.60600      -20.96100       58.67000
O         28.26300      -20.34500       59.53800
O         26.98900      -22.02300       58.90500
N         28.44100      -15.93100       56.48700
C         29.16400      -14.66800       56.59000
C         28.32900      -13.62300       57.30900
O         28.84200      -12.87200       58.14900
C         29.56700      -14.17800       55.19900
C         30.66600      -15.02400       54.54300
C         30.76300      -14.81400       53.03400
O         29.99100      -13.98800       52.49500
O         31.60700      -15.48100       52.38800
N         27.02900      -13.57700       57.00600
C         26.17100      -12.57400       57.61300
C         25.99000      -12.82800       59.10300
O         25.92500      -11.87600       59.89500
C         24.81700      -12.53800       56.89300
C         24.83500      -11.83900       55.53700
C         23.54100      -12.13700       54.81100
C         25.01500      -10.29000       55.74200
N         25.89600      -14.09700       59.50500
C         25.79500      -14.39200       60.93000
C         27.09700      -14.06600       61.64900
O         27.08400      -13.55200       62.77700
C         25.42500      -15.85600       61.13700
C         24.00400      -16.21600       60.74200
C         23.73400      -17.70300       61.01300
C         22.28900      -18.09600       60.71500
N         22.14500      -19.53900       60.33700
N         28.23200      -14.34700       61.01000
C         29.51100      -13.97800       61.60800
C         29.63000      -12.46300       61.76800
O         30.06900      -11.97800       62.81400
C         30.65400      -14.55000       60.77000
C         30.86600      -16.03600       61.02900
C         31.60600      -16.71100       59.90400
N         32.94700      -16.17500       59.75800
C         34.03900      -16.79200       60.19400
N         33.94000      -17.97500       60.78400
N         35.22900      -16.22900       60.03200
N         29.19800      -11.69400       60.76900
C         29.25400      -10.23900       60.91800
C         28.28800       -9.76000       61.99500
O         28.60200       -8.83600       62.76200
C         28.94400       -9.55800       59.58200
C         29.04800       -8.02700       59.60700
C         28.70100       -7.44100       58.23100
C         28.71800       -5.91700       58.23000
N         30.06300       -5.38100       58.60700
N         27.11100      -10.38500       62.06900
C         26.11300      -10.02400       63.07200
C         26.63500      -10.26300       64.48900
O         26.60100       -9.35800       65.33500
C         24.83200      -10.82000       62.81000
C         23.69700      -10.42900       63.72500
O         23.37500      -11.14000       64.67600
N         23.07500       -9.29400       63.43900
N         27.14400      -11.47600       64.76500
C         27.72200      -11.74800       66.08300
C         28.89500      -10.81800       66.36900
O         29.09100      -10.37200       67.51000
C         28.16700      -13.21400       66.17900
C         27.03300      -14.22500       66.09300
C         26.12800      -14.20600       67.31200
O         26.57600      -14.65000       68.39500
O         24.97100      -13.74200       67.18100
N         29.68300      -10.50800       65.34200
C         30.78900       -9.57700       65.50700
C         30.28700       -8.20500       65.93500
O         30.89000       -7.55000       66.79500
C         31.56900       -9.48200       64.20300
C         32.78100       -8.66100       64.32300
C         33.98600       -9.05000       64.82200
C         32.92700       -7.29900       63.91600
N         34.87900       -8.00400       64.76700
C         34.25000       -6.91500       64.21600
C         32.06300       -6.35900       63.34000
C         34.73000       -5.63100       63.95500
C         32.54200       -5.08500       63.08200
C         33.86200       -4.73300       63.38600
N         29.16700       -7.77000       65.36300
C         28.63400       -6.45700       65.69100
C         28.02400       -6.43300       67.08700
O         28.21200       -5.46600       67.83000
C         27.60500       -6.03200       64.64900
C         28.12200       -5.45900       63.32600
C         27.01000       -5.44300       62.28600
C         28.65000       -4.06100       63.52900
N         27.27900       -7.47200       67.45700
C         26.60300       -7.51100       68.75000
C         27.51900       -7.93800       69.89100
O         27.04400       -8.07600       71.02500
C         25.38900       -8.44300       68.68300
C         24.32100       -7.96800       67.70100
C         23.68500       -9.11600       66.94600
C         22.47800       -9.67500       67.67800
N         21.48700      -10.20700       66.70200
N         28.80700       -8.13600       69.62500
C         29.76600       -8.50800       70.66300
C         29.95900       -7.36700       71.66400
O         30.33400       -7.59300       72.81600
C         31.11200       -8.89800       70.03900
C         32.05000       -7.72200       69.77900
C         33.15800       -8.09900       68.79700
N         34.22000       -7.09500       68.70700
C         34.09100       -5.90100       68.13300
N         32.93200       -5.52700       67.60300
N         35.12600       -5.07200       68.09900
C         23.22300      -13.04500       40.89600
O         22.28200      -13.79400       40.15900
C         22.60800      -12.72500       42.28900
O         23.58200      -12.35200       43.23100
C         21.61000      -11.57900       42.02000
O         20.52700      -11.75600       42.88400
C         23.38700      -15.21700       45.87400
O         24.04100      -14.09300       45.36000
C         22.87100      -16.05000       44.66600
O         23.37900      -17.34300       44.68700
C         21.30400      -16.02100       44.75800
O         20.78600      -16.24300       43.45800
C        -13.15400      -26.30600       21.00000
O        -13.87700      -27.45200       20.64200
C        -14.14600      -25.32700       21.69400
O        -14.52500      -25.76300       22.96100
C        -13.42500      -23.95300       21.71700
O        -14.35200      -23.02300       22.20100
O        -28.67300      -12.93900       37.70100
O          8.63800      -26.49000       24.16300
O         19.15500      -23.90000       34.95600
O         25.18500       -2.80500       56.24000
O        -15.51800      -24.74300       32.37200
O        -16.44600        2.33300       44.07800
O         19.17500        6.66800       63.58800
O         23.13600      -27.66900       48.27900
O         21.00600      -13.71100       49.86300
O         19.54500       -4.46300       52.59700
O         25.49100      -25.36600       37.45400
O         24.93600      -32.22900       34.84200
O         26.22900       -6.91600       56.25600
O         -7.56900      -32.24700       28.65000
O         13.08100      -33.57600       29.59600
O         26.89300       -7.13500       53.13700
O         28.55400        0.76100       65.58500
O         17.21100      -13.86300       62.01000
