1950
Fibrogen
C        -15.96000       23.21100      -88.47000
C        -17.14400       19.93000      -88.29100
C        -19.18600       17.39700      -89.40800
C        -17.04100       15.22800      -88.68800
C        -15.37200       12.00200      -88.08800
C        -13.12800        9.40300      -90.21500
C        -11.80700        6.21700      -92.51400
C         -9.70000        3.06100      -91.56700
C         -6.96600        2.66300      -90.03400
C         -9.53500        3.40900      -87.50200
C         -9.95700       -0.16400      -86.74300
C         -6.06800       -0.69700      -86.94000
C         -5.81100        2.18400      -84.63200
C         -8.75800        0.68000      -82.42100
C         -6.86300       -2.53100      -82.92200
C         -3.73500       -1.00500      -81.48900
C         -5.62800        0.52100      -78.18400
C         -7.65500       -2.38400      -76.26100
C         -4.27200       -4.62300      -76.53900
C         -2.38100       -2.38800      -74.27200
C         -5.27800       -2.25500      -71.98800
C         -6.13800       -5.93500      -72.07000
C         -2.53300       -7.01700      -71.71900
C         -1.49500       -4.39600      -68.89400
C         -4.02100       -6.62100      -66.77200
C         -1.99000       -9.53700      -67.91600
C          0.37300       -7.97700      -65.61800
C         -2.52900       -7.28600      -64.00000
C         -2.90800      -10.95600      -63.86100
C          0.80000      -10.89800      -63.09500
C          1.17800       -7.60700      -61.01500
C         -1.35200       -7.76000      -58.18100
C         -1.43900      -11.40100      -58.01500
C          1.85800      -11.88000      -56.93300
C          4.04600       -9.57000      -54.74600
C          0.26600       -9.42300      -53.21400
C          0.18400      -13.14800      -52.43100
C          3.95400      -13.66000      -52.14100
C          3.72700      -11.57400      -50.38200
C          0.74200      -13.04600      -48.62200
C          1.50600      -16.41200      -46.96600
C          4.67000      -14.40800      -45.96400
C          2.97300      -11.48900      -44.49600
C          1.44900      -12.40600      -42.26500
C          4.22400      -14.97100      -41.39500
C          5.72000      -12.08100      -40.66300
C          3.06800      -11.53500      -37.94100
C          3.88500      -14.94500      -36.66500
C          7.66100      -14.40200      -36.32400
C          7.60800      -10.82400      -35.16900
C          4.88300      -12.18300      -32.71200
C          7.43900      -14.58800      -31.13800
C          8.55100      -11.45200      -29.86800
C          5.43300      -10.51900      -28.17100
C          7.34800      -13.21600      -26.42400
C         11.11700      -13.02300      -26.19400
C          9.77600      -10.24200      -24.29200
C          6.57200      -10.76200      -22.37400
C          8.26500      -13.83100      -20.15900
C         10.26100      -10.64400      -19.55200
C          7.00800       -9.41300      -18.07000
C          6.86800      -11.46700      -14.84200
C         10.50500      -12.28300      -15.49700
C         11.10400       -8.57600      -14.75900
C          7.80200       -8.26200      -12.95400
C          9.00200      -10.91800      -10.58000
C         12.32500       -9.32000       -9.63500
C         10.07300       -6.51600       -8.56200
C          8.19100       -8.71900       -6.10700
C         11.47400      -10.37500       -5.04800
C         13.81400       -7.62800       -3.95500
C         10.69000       -5.81900       -2.82500
C         10.59200       -8.32300        0.01400
C         14.39500       -8.35800        0.33300
C         15.14100       -4.63700        0.38100
C         12.45400       -5.27300        3.02500
C         13.73300       -8.12600        5.23500
C         16.89700       -5.98700        5.07900
C         15.15800       -3.25200        7.16700
C         13.80500       -5.20900       10.09200
C         17.25900       -6.71300       10.19800
C         19.01200       -3.35100        9.62800
C         16.78600       -2.06700       12.40600
C         16.59500       -5.14200       14.65800
C         20.36100       -5.40500       14.38600
C         20.95200       -1.91100       15.76600
C         18.22500       -2.00300       18.38400
C         20.50800       -4.64900       19.72800
C         23.93200       -3.39800       18.75900
C         23.06200       -0.24700       20.70700
C         21.36600       -2.36800       23.37800
C         24.95800       -3.61800       23.47000
C         26.96200       -0.42500       23.79900
C         24.54600        0.24700       26.67000
C         25.32000       -2.72300       28.93800
C         28.86000       -2.10800       27.63500
C         28.83400        0.97300       29.85800
C         26.51500       -0.28500       32.55700
C         29.08400       -2.95400       33.30200
C         32.04800       -0.62000       32.88100
C         30.30200        0.69800       35.93800
C         29.34500       -2.58600       37.56300
C         32.99700       -3.49300       36.78000
C         34.48400       -0.31700       38.27300
C         31.88700        0.13600       41.04400
C         32.85900       -3.33100       42.13200
C         36.68200       -2.84800       42.09300
C         35.62500       -0.20600       44.58900
C         33.74700       -2.46400       46.99800
C         36.45700       -5.07300       46.77500
C         39.25400       -2.66400       47.68000
C         36.92900       -1.01600       50.13500
C         35.77500       -4.21400       51.72500
C         39.35700       -5.55400       51.64700
C         40.21700       -2.61500       53.83000
C         36.96000       -2.75600       55.80200
C         38.21700       -6.18900       56.97500
C         41.85300       -5.81000       57.96200
C         40.51600       -2.98100       60.11900
C         38.38100       -5.64000       61.68800
C         41.47700       -7.59800       62.61300
C         42.37200       -5.25300       65.43500
C         38.95400       -5.13200       67.09200
C         37.74600       -8.74900       67.22100
C         39.19200      -12.21400       67.60900
C         40.29700      -13.95600       64.38000
C         41.25000      -12.24200       61.07400
C         40.71700      -13.31900       57.46600
C         44.09600      -12.68400       55.73100
C         42.49100      -11.32900       52.59000
C         44.38700       -9.51200       49.86000
C         42.62000       -8.10800       46.77100
C         44.38900       -9.13300       43.55100
C         43.78000       -6.08300       41.45800
C         45.31400       -7.51300       38.31000
C         42.25200       -9.63300       37.46800
C         40.15100       -6.57300       38.13700
C         42.78400       -4.47500       36.34100
C         42.36300       -6.86200       33.41100
C         38.56000       -6.84000       33.22600
C         38.84400       -3.09800       33.04800
C         41.34900       -3.22600       30.17000
C         39.73100       -6.00000       28.13700
C         36.26300       -4.40900       28.46000
C         37.70200       -1.03900       27.50000
C         39.54600       -2.56900       24.57500
C         36.28700       -4.44300       23.76700
C         34.23500       -1.47600       22.54800
C         36.57000       -1.36500       19.57300
C         34.11000       -0.30100       16.87800
C         30.45400       -0.53800       15.78400
C         28.01900       -0.14600       12.86100
C         28.99600        2.06900        9.94800
C         28.01000        4.05600        6.76900
C         24.74600        3.60900        5.19800
C         21.66400        3.70900        2.97200
C         19.46100        1.20600        1.16900
C         17.28800        1.45200       -2.00600
C         19.10200        4.32800       -3.73400
C         17.03300        4.51200       -6.94500
C         13.99700        2.33800       -7.78900
C         10.33000        1.58800       -7.97100
C          8.88300        3.62700      -10.58600
C         11.03100        2.44300      -13.05000
C         10.54900       -1.29800      -13.14500
C          8.72800       -0.21500      -16.31300
C          6.81500        2.83300      -17.07700
C          6.89100        3.01600      -20.85700
C          6.31800       -0.61900      -22.36600
C          3.91700       -3.16600      -23.59400
C          1.51800       -5.12100      -24.89200
C          0.41500       -4.32100      -28.03900
C          0.44200       -6.03600      -30.53500
C         -1.90100       -8.56500      -30.70900
C         -3.65200      -10.80200      -32.90400
C         -4.77700       -8.05200      -35.17700
C         -8.33800       -7.20100      -34.53700
C         -8.46400       -5.32400      -31.82800
C        -10.76900       -3.03600      -32.97600
C        -13.73800       -4.56100      -31.08400
C        -24.04000       -0.53900      -85.67700
C        -20.63500        0.16000      -86.01400
C        -20.46700        2.15200      -83.09200
C        -22.59000        0.34500      -80.50000
C        -19.41200       -1.75100      -80.45700
C        -16.90200        0.88800      -79.31200
C        -19.58200        1.36600      -76.66900
C        -19.70400       -2.30600      -75.62800
C        -15.94300       -2.70600      -75.22000
C        -15.51700        0.46900      -73.14400
C        -18.26700        0.58600      -70.51300
C        -16.97200       -2.74600      -69.08600
C        -13.72500       -0.85800      -68.62500
C        -15.52200        1.80700      -66.64700
C        -16.45500       -1.30200      -64.66100
C        -13.15200       -3.20900      -64.84200
C        -12.17400        0.16100      -63.43000
C        -14.54000       -0.16200      -60.44400
C        -13.34400       -3.75900      -59.98300
C         -9.58200       -3.25600      -59.80800
C        -10.66700        0.00900      -58.13500
C        -12.77600       -1.13400      -55.16900
C        -10.73400       -4.37000      -55.28200
C         -7.29500       -2.80200      -54.88100
C         -8.32700        0.15100      -52.70200
C         -9.61200       -2.20500      -49.99400
C         -6.34500       -4.24200      -50.00800
C         -4.23500       -1.10900      -50.27200
C         -4.39000        0.69100      -46.94000
C         -4.36500       -2.97600      -46.07600
C         -0.92500       -3.35000      -47.58500
C         -0.77000        0.38200      -46.63200
C         -2.12700        0.70400      -43.07300
C         -0.50700       -1.23100      -41.92800
C          3.11300       -0.54500      -42.80400
C          2.75600        2.01000      -40.02800
C          2.90500       -0.94500      -37.59100
C          5.97500       -2.72200      -39.01200
C          7.12600        0.75400      -38.11300
C          5.71400        0.97500      -34.53500
C          6.62700       -2.61100      -33.90200
C         10.09700       -2.21000      -35.43500
C         10.28600        0.85400      -33.12200
C          8.87200       -0.35300      -29.78200
C         11.44100       -3.07300      -30.35600
C         14.90800       -1.56900      -30.27200
C         13.08700        1.10300      -28.31200
C         13.41600       -1.36900      -25.41400
C         17.00100       -2.51100      -25.71800
C         18.40300        0.30500      -24.43400
C         14.98700        1.59800      -22.58400
C         15.43100       -1.57500      -20.29200
C         19.55500       -1.90000      -20.45000
C         19.56000        1.34200      -18.60300
C         17.86300       -0.83100      -16.01900
C         20.47300       -3.22100      -16.69800
C         23.24200       -1.17800      -15.02000
C         20.63300       -0.07900      -12.45600
C         20.32200       -3.36200      -10.66300
C         23.78200       -4.22400      -11.98300
C         25.22200       -1.37000       -9.89300
C         22.47600       -1.12900       -7.31000
C         23.58300       -4.74400       -6.84700
C         27.19000       -4.04200       -5.84100
C         25.55100       -1.99700       -3.10500
C         23.40800       -4.56000       -1.25300
C         26.83200       -6.08600       -0.52000
C         26.81500       -3.58400        2.30000
C         23.93000       -5.38400        3.92400
C         25.74300       -8.69400        3.21800
C         28.73500       -7.98000        5.43400
C         26.42900       -6.26200        7.90200
C         25.19800       -9.67100        8.44600
C         28.64400      -11.18100        7.95700
C         31.16900       -9.22700       10.09000
C         28.16900       -9.19600       12.42000
C         26.09900      -12.11800       13.75700
C         29.22700      -14.12200       12.92500
C         32.04100      -11.71600       13.84000
C         31.17100       -8.86900       16.16500
C         27.63300       -8.96200       17.64500
C         28.50100      -12.17300       19.37000
C         32.01600      -11.45600       20.61900
C         30.74300       -8.15000       22.02300
C         28.45200      -10.14000       24.25200
C         30.51500      -13.11800       25.52000
C         33.08500      -10.80200       27.12900
C         30.04300       -9.07400       28.36500
C         29.02300      -12.36400       29.98500
C         32.58200      -13.33500       30.69500
C         32.94700      -10.41600       33.17800
C         29.26700      -10.31200       33.92400
C         29.09800      -13.90600       35.20000
C         32.59100      -13.51600       36.64200
C         31.26000      -10.45500       38.41400
C         28.64300      -12.82600       39.79100
C         31.37500      -14.87200       41.37700
C         33.49900      -12.26600       43.21200
C         30.28300      -11.23800       44.86600
C         30.02600      -14.65000       46.45000
C         33.67500      -14.69900       47.58300
C         32.90400      -11.42300       49.24300
C         29.31300      -12.18800       50.31400
C         30.86400      -14.98700       52.41200
C         34.03300      -13.27200       53.60300
C         31.66600      -10.77200       55.22700
C         29.50600      -13.39700       56.88800
C         32.82200      -14.88800       57.95900
C         34.56800      -11.89100       59.56300
C         31.06400      -11.18800       60.71500
C         31.34100      -14.42900       62.59000
C         35.00700      -14.05000       63.32300
C         33.60400      -10.95000       65.00800
C         31.30600      -12.53000       67.62600
C         34.29000      -12.65300       69.91800
C         36.50800       -9.55300       70.30500
C         40.26300       -9.14000       70.25700
C         41.62800       -9.00300       73.84500
C         44.81000       -7.92800       75.58800
C         46.25700       -8.40900       79.06700
C         48.19200       -5.22100       79.62600
C         49.89800       -5.26700       83.01800
C         50.65700       -1.60000       83.72200
C         54.34100       -0.83600       83.89900
C         55.79500        0.25200       87.18500
C         57.20700        3.66000       86.12200
C         55.00900        6.66300       85.24500
C         54.68100       10.41100       84.64700
C         52.60800       13.09300       82.92700
C         54.21400       11.99400       79.75000
C         56.86600        9.49800       78.53700
C         60.01400       11.65500       78.79200
C         59.23300       11.60200       82.50100
C         59.46000        7.86700       82.32200
C         62.74100        7.47100       80.49900
C         64.56900       10.05500       82.64700
C         62.50300        8.48200       85.34400
C         64.24000        5.25700       84.12800
C         61.50000        3.20600       82.39600
C         63.53200        2.28000       79.33100
C         61.67200       -0.42900       77.33500
C         59.58500        0.88400       74.51500
C         56.18900       -0.39100       75.63300
C         52.78900        0.48800       77.05000
C         53.17400        2.70600       80.07400
C         50.60000        4.73800       81.83200
C         50.61400        8.51200       82.31100
C         48.91800       11.35000       84.11400
C         49.78500       14.81300       82.78200
C         47.32300       16.63800       85.04300
C         46.74500       15.78000       88.69900
C         43.09300       15.91500       87.68000
C         43.83200       13.98000       84.48800
C         42.64500       10.50100       85.50700
C         45.70500        8.64700       84.14100
C         45.41400        6.89800       80.81900
C         47.66300        4.40700       79.03900
C         49.80200        5.23700       76.03100
C         52.53100        3.45900       74.16400
C         55.90100        5.20300       74.34300
C         58.96000        4.49100       72.25200
C         61.94700        4.77700       74.44700
C         64.67600        4.08700       71.89200
C         63.85700        5.70200       68.54100
C         65.63800        9.00600       69.00100
C         66.39500        9.62600       72.66600
C         63.09500        8.11100       73.60900
C         60.34700        9.79500       75.65200
C         58.24700        9.84500       72.52700
C         54.60700        9.38700       73.38400
C         52.92900        7.74000       70.38500
C         50.05900       10.07400       69.40900
C         48.71000        8.06500       66.54000
C         49.71600        4.64400       65.23200
C         49.52000        3.26300       61.62400
C         51.16600       -0.09300       60.71400
C         48.71800       -2.61300       59.34000
C         45.37200       -0.85800       59.11500
C         44.00900       -3.13600       61.75900
C         41.71000       -0.31500       62.79200
C         38.93900        1.82800       61.34200
C         40.02700        5.43600       61.13100
C         36.78900        5.89800       59.33300
C         35.46600        7.42200       62.51600
C         33.56700       10.56500       63.48400
C         34.39800       13.44000       65.85700
C         34.02400       12.22500       69.42500
C         36.00200        9.10000       68.56300
C         38.77000       11.43200       67.37600
C         38.96800       14.08000       70.04200
C         38.52200       11.24900       72.49700
C         41.09300        8.99500       70.87100
C         40.81200        5.53100       69.38500
C         42.81000        2.43600       68.44000
C         44.57200       -0.15500       70.58500
C         47.46300        1.45200       72.49300
C         49.48400       -1.69800       72.24400
C         49.35000       -5.47300       72.36600
C         50.92100       -8.30900       74.43000
C         54.02600       -9.64200       72.65800
C         54.94800      -13.28700       71.96100
C         54.13400      -14.58700       75.40700
C         55.11100      -11.78400       77.80100
C         52.56800      -10.37600       80.26200
C         52.95900       -6.78500       79.24700
C         51.96200       -5.61200       75.73900
C         55.39700       -4.67800       74.42200
C         53.70000       -4.41000       71.04600
C         52.27200       -1.01600       69.93300
C         48.75900       -0.64900       68.67100
C         47.46100        1.48500       65.78100
C         45.57800        4.35100       67.33400
C         44.75800        8.04200       67.40300
C         45.57900        9.23200       70.86800
C         42.65500       11.63000       71.06900
C         42.89200       15.28100       70.13500
C         41.99700       16.38400       73.69100
C         44.93200       14.59200       75.21600
C         47.13200       15.45800       72.28500
C         46.59800       19.14900       72.78700
C         46.77500       18.88400       76.58200
C         50.04900       17.14700       76.06000
C         51.07200       19.73300       73.49700
C         49.65700       22.65400       75.52200
C         52.25200       21.70900       78.15000
C         54.64800       23.80500       76.12000
C         57.66400       22.41300       74.24400
C         56.17200       19.48900       72.37000
C         58.58100       18.49100       69.57600
C         56.66700       16.51600       66.90700
C         58.18000       13.61900       64.96800
C         56.36800       11.58300       62.35000
C         57.84800        8.47700       60.76200
C         56.70300        6.34400       57.81900
C         57.75300        3.35900       55.76600
C         57.87700        2.22200       52.14600
C         56.14500       -1.01900       51.16600
C         59.47000       -1.26600       49.31400
C         61.35000       -0.97300       52.56900
C         62.26300        2.70500       52.65300
C         61.22200        4.93200       55.56200
C         61.31600        8.60800       56.44200
C         61.07100       11.00700       59.36300
C         59.14600       14.25600       59.55900
C         60.25700       16.28300       62.60600
C         58.06100       19.24000       63.32200
C         59.94500       20.68500       66.27300
C         56.90400       22.69200       67.33000
C         53.69500       20.72400       67.20400
C         50.92500       22.55900       69.16100
C         47.35000       21.36200       68.78500
C         44.55500       23.32100       70.44700
C         41.13400       22.65900       71.87900
C         37.75700       21.53900       70.62900
C         36.33900       25.07100       70.80100
C         39.48700       25.98600       68.82900
C         38.72100       23.23200       66.34400
C         41.89600       21.65600       67.64400
C         43.68800       24.20100       65.49800
C         46.85700       22.24200       64.68900
C         50.03300       24.01700       63.48600
C         53.74500       23.39400       63.88900
C         56.83800       25.57200       64.21700
C         59.82500       24.13300       62.39300
C         60.16000       20.99000       60.33000
C         63.26100       18.96000       59.51000
C         63.18300       15.59000       57.78200
C         63.40700       13.55600       54.58400
C         59.81300       13.76600       53.37900
C         58.97100       17.46200       52.79100
C         57.01900       19.76000       55.09900
C         53.55400       18.59500       54.26200
C         51.91500       20.75100       56.91900
C         53.17800       24.28100       56.41600
C         54.09100       23.84200       52.75200
C         51.32300       22.20400       50.73300
C         52.15100       19.50800       48.16900
C         55.76800       19.54700       46.90300
C         54.38100       19.06300       43.42100
C         51.55700       21.58300       43.18100
C         52.81900       25.19200       42.90100
C         51.42900       28.57600       43.87900
C         47.82500       28.56100       45.13200
C         47.77100       24.85300       44.36700
C         50.66300       24.15900       46.70700
C         49.27000       26.64800       49.21100
C         45.88800       24.99900       48.99500
C         47.48100       22.20400       50.99000
C         49.04600       23.67300       54.09300
C         47.67500       22.50700       57.45600
C         49.56600       24.88800       59.63900
C         46.71500       26.84400       61.20600
C         44.14000       24.30300       60.09900
C         41.09100       23.35500       62.09500
C         40.53700       19.64300       62.73500
C         37.78800       18.15700       60.57800
C         36.32300       14.62900       60.36500
C         33.81500       13.03000       58.02800
C         31.01100       14.16500       60.37300
C         32.64800       17.43600       61.45900
C         34.01200       19.72500       58.74000
C         36.44400       22.64100       58.87500
C         38.59700       22.10400       55.77100
C         39.25000       24.67900       53.07700
C         35.69600       24.73600       51.79700
C         32.68900       26.74100       50.71300
C         29.34500       25.63300       52.17800
C         28.43700       23.82500       48.98500
C         28.17400       20.58000       47.03900
C         29.79000       17.71100       48.97800
C         32.09700       17.53100       45.95300
C         34.02700       19.98000       48.14000
C         34.20900       18.61600       51.72700
C         37.63700       16.98100       51.97000
C         36.70800       14.53500       54.72300
C         34.00300       12.42600       53.14000
C         32.01800        9.51200       54.63000
C         34.20800        6.76900       56.11900
C         37.03900        9.17400       55.44700
C         39.53300        9.79400       58.22300
C         38.94800       13.13000       59.91500
C         42.07800       15.23500       60.49200
C         43.23500       18.86500       59.96700
C         41.97700       19.57100       56.44400
C         42.42600       22.75800       54.33600
C         41.48100       22.70400       50.66200
C         42.02400       19.08800       51.63100
C         45.38000       17.38600       51.87300
C         49.09700       17.44200       51.22500
C         49.21400       14.34800       53.46300
C         46.74400       12.39900       55.58600
C         48.22400        9.82900       58.05800
C         44.64300        9.22200       59.14400
C         43.73500        7.89800       55.69800
C         42.63500        4.43000       54.66600
C         45.39300        1.83500       54.76000
C         45.16200        0.98400       51.06500
C         46.48700       -2.52900       50.77300
C         49.88300       -2.41700       49.05500
C         49.58200        1.34200       49.22200
C         49.65800        2.74300       45.70000
C         46.08900        2.90300       44.52900
C         43.53400        4.54200       42.21600
C         40.08800        6.11900       42.25800
C         38.36000        3.06500       40.79400
C         39.46400        1.95900       44.23900
C         38.70700        5.04300       46.29600
C         35.10600        4.58000       47.56300
C         34.80400        8.32800       47.00200
C         37.47000        8.65500       44.36900
C         39.03000       10.94400       46.95000
C         42.69700       10.54000       47.71700
C         41.55700        8.36000       50.59700
C         44.93200        6.74400       51.21900
C         47.19900        7.43000       54.15300
C         49.55500        9.91500       52.45600
C         52.58000       12.12100       52.62700
C         52.66300       13.60600       49.12700
C         55.94700       15.44400       49.61800
C         57.53500       11.98200       49.42000
C         55.44300        9.34500       47.65000
C         53.25600       11.58000       45.54000
C         49.59800       10.76500       45.95600
C         47.26200        7.75700       45.69400
C         49.67600        5.78500       47.84200
C         48.33300        4.79400       51.28100
C         51.63300        4.53300       53.10800
C         53.23900        1.30000       54.27100
C         53.73300        2.62300       57.78900
C         53.47200        5.94600       59.50100
C         52.72000        7.17700       63.02300
C         52.95100       10.41600       65.02500
C         54.91400       10.93100       68.30900
C         55.78700       13.67000       70.78100
C         58.70000       14.30600       73.23300
C         58.80400       17.88600       74.52400
C         61.15500       20.52200       73.20000
C         64.34900       21.55600       74.92600
C         67.07200       22.66700       72.45300
C         66.75100       24.19400       68.96600
C        -14.38500       13.55900      -81.59500
C        -16.58800       13.32100      -78.65600
C        -15.09600       10.13600      -79.01100
C        -11.46000       10.65600      -79.06700
C        -11.65000       13.06900      -76.29400
C        -13.59900       10.70500      -74.24900
C        -11.15000        8.02600      -74.83500
C         -8.37200       10.14800      -73.69300
C         -9.64500       11.08000      -70.27200
C         -9.97800        7.52600      -69.37700
C         -6.44500        6.88600      -70.15100
C         -5.33900        9.60200      -67.92700
C         -7.35200        8.26800      -65.16100
C         -5.93500        4.90800      -65.59300
C         -2.50300        6.20500      -65.38900
C         -3.22700        7.90900      -62.20700
C         -3.50200        4.02300      -61.50400
C          0.25000        3.67200      -62.48900
C          2.43900        5.19900      -60.37500
C          0.63100        3.23700      -57.85300
C          2.27500        0.23400      -57.84000
C          5.81400        0.96900      -58.22100
C          5.82800        3.15900      -55.34700
C          3.98200        0.78200      -52.98500
C          6.44800       -1.75400      -53.94900
C          8.99000        0.96800      -53.36200
C          7.81100        1.30500      -49.73900
C          7.01800       -2.27500      -48.67100
C         10.21200       -2.95400      -50.49500
C         12.27300       -0.09100      -48.43400
C         10.45100       -0.97100      -45.34600
C         11.58800       -4.18900      -46.44100
C         15.10300       -3.16000      -46.78200
C         15.23200       -1.82600      -43.83800
C         13.49500       -4.77500      -42.15100
C         16.34000       -7.01700      -43.31800
C         19.10000       -4.72800      -41.90600
C         17.04700       -4.53500      -38.67700
C         17.23400       -8.33300      -38.37000
C         21.01000       -8.25500      -39.09700
C         21.58300       -5.64200      -36.32300
C         19.68200       -7.77200      -33.83800
C         21.66600      -10.99800      -34.65500
C         22.72800       -8.67200      -33.03900
C         20.48900       -6.97700      -30.48000
C         19.92400      -10.43400      -28.77000
C         20.32400       -9.13200      -24.94200
C         20.95700      -12.43600      -23.62600
C         24.18100      -10.94200      -22.65000
C         22.68900       -8.99300      -20.15900
C         22.22700      -12.51000      -18.44000
C         21.54600      -10.30200      -15.93500
C         17.98200       -9.32400      -15.07000
C         17.27500      -13.02400      -14.69500
C         20.45700      -13.51900      -12.74000
C         19.72700      -10.80700      -10.18500
C         16.08900      -11.91400       -9.85600
C         17.76700      -15.16700       -8.78900
C         20.74400      -14.02700       -6.64000
C         17.94800      -12.34300       -4.65800
C         16.21300      -15.48600       -3.48000
C         19.78200      -16.44100       -2.53000
C         20.47200      -13.26100       -0.62400
C         17.36400      -14.71300        0.96000
C         18.87900      -18.03300        2.05400
C         21.46400      -15.88500        3.82700
C         19.09600      -13.11500        4.97100
C         17.14200      -15.60400        7.04400
C         19.60100      -17.52900        9.18300
C         20.16800      -13.97900       10.31800
C         16.74000      -12.61100       11.29100
C         16.83400      -15.41200       13.86300
C         20.59600      -15.53500       14.50100
C         19.75900      -12.42900       16.41800
C         16.37700      -13.34500       17.84900
C         18.86400      -15.31300       19.96800
C         21.36200      -12.46700       20.10700
C         18.35100      -10.73800       21.76100
C         18.47500      -13.19800       24.62800
C         22.25200      -13.15700       24.64000
C         21.52200       -9.50200       25.36800
C         18.31700       -9.81300       27.43900
C         19.99000      -12.26100       29.80300
C         23.26300      -10.36500       29.74500
C         21.19200       -7.64100       31.41400
C         19.43700       -9.85200       33.97400
C         22.85100      -11.14300       35.06000
C         24.42400       -7.75800       35.61300
C         21.41800       -6.93900       37.72900
C         21.16100       -9.95000       40.03000
C         24.82500       -9.01300       39.98400
C         24.03700       -5.36100       40.55700
C         21.84900       -7.00400       43.15800
C         24.07800       -9.44500       45.06200
C         26.65900       -6.63200       44.92700
C         23.98000       -4.34300       46.35200
C         23.30900       -6.84700       49.07100
C         27.01100       -7.33200       49.72400
C         27.03600       -3.63100       50.55400
C         24.73100       -3.43900       53.56400
C         26.37600       -6.43100       55.17500
C         29.81300       -4.91200       54.90300
C         28.09900       -2.08700       56.74200
C         26.74900       -4.43400       59.35700
C         30.40000       -5.49900       59.58100
C         32.16700       -2.18900       60.06900
C         29.45000       -1.84900       62.68900
C         31.53700       -4.29700       64.73400
C         35.28600       -3.81000       64.23200
C         34.87200       -0.49900       66.06100
C         35.58600       -1.39300       69.67600
C         39.34500       -1.84200       70.24800
C         40.57900       -5.14000       71.68700
C         39.49200       -5.87200       75.19900
C         41.92400       -5.53000       78.03900
C         41.85800       -7.56300       81.15700
C         43.86000       -5.38700       83.54200
C         41.09100       -3.32200       85.07400
C         41.90400       -0.86700       87.85000
C         39.40300       -0.11000       90.59900
C         38.15300        3.40400       91.31500
C         38.44800        4.12000       95.02700
C         41.84000        4.88000       96.49900
C         43.42200        6.51800       99.55100
C         46.71600        6.80200      101.44800
C         47.01600        3.03900      101.12400
C         45.13200       -0.14900      100.12700
C         43.75600       -0.62500      103.57100
C         42.31600        2.82600      103.25300
C         40.40700        1.48200      100.21200
C         40.04400       -1.87800      101.77100
C         38.18600       -0.12500      104.57900
C         36.87400        2.40100      102.08100
C         35.02800       -0.59100      100.71000
C         37.61300       -2.31900       98.50000
C         36.63200       -6.01400       98.81500
C         38.88700       -7.43900       96.10500
C         42.59700       -7.66000       95.46200
C         44.14000       -6.06900       92.43400
C         45.58600       -2.83700       91.18100
C         44.41200        0.42000       92.78500
C         45.47900        4.05200       93.00400
C         46.56500        5.78100       96.23100
C         48.14600        8.94700       97.59500
C         49.70400        9.11300      101.07500
C         49.11800       12.60900      102.40000
C         52.63700       14.06800      102.13500
C         52.69600       12.48500       98.68800
C         52.35300       14.64800       95.61100
C         50.58400       12.85800       92.71600
C         48.84800        9.56700       93.51100
C         49.99000        6.21000       92.10600
C         48.84400        2.66300       91.50300
C         50.21800       -0.24700       93.49100
C         49.37600       -3.88200       94.03400
C         46.96200       -4.38000       96.94600
C         46.56700       -7.80900       98.44100
C         43.40100       -8.18800      100.47600
C         41.48500      -10.91000      102.37500
C         38.22600      -11.71100      104.14900
C         39.44100       -9.99400      107.27500
C         39.70200       -6.80200      105.23400
C         43.45700       -6.14200      105.05700
C         44.85900       -3.48200      102.72200
C         48.10500       -5.42800      102.33700
C         49.71300       -2.97900       99.94000
C         52.72500       -4.60400       98.36900
C         55.89600       -2.94800       97.22200
C         57.76500       -5.95500       95.98000
C         57.15900       -9.53800       94.90000
C         59.01800      -11.89400       92.65100
C         58.56800      -15.36300       91.07900
C         60.38200      -15.86300       87.82800
C         63.05400      -14.02900       85.93200
C         61.33400      -11.08300       84.34800
C         63.24600       -8.18500       85.97300
C         66.99900       -7.78900       85.74500
C         66.88300       -6.39000       89.26000
C         70.35500       -4.94000       88.61500
C         68.82700       -1.47500       88.36900
C         69.72500        1.97300       89.71600
C         68.68000        4.45700       92.36600
C         66.07000        6.33100       90.31400
C         64.96100        3.11600       88.74100
C         64.70200        1.85600       92.32900
C         63.83700        5.31300       93.63700
C         60.74900        5.21000       91.42600
C         60.60900        1.48200       91.03700
C         60.23700       -0.87200       88.08700
C         58.62100       -4.05100       86.89000
C         54.87900       -4.30900       86.37600
C         51.71000       -4.59600       88.34000
C         49.23100       -7.31100       87.54800
C         45.78500       -7.42600       89.23900
C         46.93800      -11.01200       89.83600
C         50.37500      -10.21000       91.14600
C         51.95500      -12.79100       88.86700
C         53.87200       -9.65400       88.00300
C         57.47100       -9.49500       89.25100
C         57.92600       -5.84400       90.48600
C         59.74600       -3.31300       92.65800
C         57.41700       -0.56600       93.89100
C         60.19000        1.98500       94.03800
C         61.95100        3.15600       97.20300
C         60.41500        6.61100       97.58500
C         56.86900        5.56400       96.81200
C         57.09000        2.87300       99.44800
C         58.64200        5.32900      101.83400
C         55.81300        7.80200      101.18700
C         53.47800        5.21500      102.68500
C         56.14500        3.69900      104.96200
C         56.22100        7.20700      106.50600
C         52.78900        8.91600      106.82900
C         50.44300       10.28400      109.51800
C         52.55000        8.70200      112.29500
C         50.64200        5.41800      112.41000
C         51.64700        1.74700      112.85800
C         53.15700        0.01700      109.77700
C         54.26500       -3.61900      109.38200
C         56.52900       -5.05600      106.68200
C         55.45500       -8.74400      106.24300
C         57.56500      -10.96500      104.09300
C         55.88000      -14.18400      102.79000
C         58.56500      -16.44600      101.33800
C         58.39000      -19.62700       99.24600
C         60.83200      -22.38600       98.35100
C         61.08400      -24.59800       95.32800
C         58.94100      -27.04500       97.27900
C         55.72900      -25.20000       98.01700
C         56.70600      -23.93000      101.44300
C         55.73100      -20.50100      102.67000
C         57.01500      -18.69000      105.74100
C         55.87500      -15.20900      106.70200
C         58.26400      -13.04000      108.65700
C         56.73100       -9.72300      109.75200
C         58.70400       -6.80400      111.14300
C         57.28200       -4.33100      113.61100
C         56.92800       -0.66900      112.65900
C         58.07000       -0.34400      109.05300
C         59.89000        2.88200      108.27600
C         61.97700        3.73700      105.27200
C         63.86600        7.02900      104.83800
C         63.51600        9.64800      102.12000
C         66.18200       10.10500       99.48900
C         67.63600       12.58200      101.96100
C         68.85400        9.49300      103.67600
C         69.24900        7.03200      100.84200
C         65.80400        5.54000      101.52300
C         67.04900        4.04600      104.76300
C         65.43700        0.98500      106.27000
C         63.76000        1.03900      109.67900
C         61.50100       -1.03200      112.02200
C         61.04300       -1.02100      115.74900
C         61.63000       -4.70400      116.41300
C         61.12600       -8.04100      114.70800
C         58.12600      -10.31600      115.49500
C         56.59700      -13.79900      115.13000
C         57.78600      -14.73100      111.65100
C         58.81500      -18.33300      110.91800
C         61.19900      -17.26100      108.17800
C         63.34100      -15.81900      110.90500
C         64.94200      -12.33000      111.30900
C         67.50200      -12.09300      108.47900
C         67.50300       -8.37100      109.16400
C         68.96100       -9.12200      112.61200
C         72.17500      -10.09800      110.86800
C         73.57900      -13.65600      110.85000
C         76.61000      -15.85800      111.16500
C         77.85400      -17.97600      108.34400
C         81.07800      -18.21000      110.26800
C         82.87100      -16.53600      107.40300
C         83.88500      -14.22900      110.24400
C         82.74900      -13.25100      113.75600
C         81.56400       -9.79900      112.84400
C         79.10400      -11.55200      110.52000
C         75.98000      -10.80000      112.54900
C         76.92600       -7.10200      112.69700
C         78.15600       -7.10700      109.14600
C         74.70700       -8.04600      107.86100
C         72.72700       -6.22200      110.47500
C         69.91700       -5.04800      108.30300
C         67.66000       -2.65000      110.19900
C         68.66900        0.93200      109.97300
C         70.24700        1.14700      106.55800
C         70.36800        3.60800      103.70000
C         68.98900        1.51200      100.90800
C         71.37600        1.38000       97.98200
C         72.35500        0.31600       94.47800
C         75.31600       -0.21600       92.20000
C         75.65600        3.50000       91.40300
C         74.88300        5.24700       94.73100
C         76.87200        3.16700       97.24900
C         75.30300        3.17700      100.75200
C         76.77900       -0.15200      101.86700
C         78.54200       -0.20800      105.22200
C         81.20800       -2.14100      103.42700
C         84.20000       -0.95400      101.34800
C         83.25700       -0.70800       97.69300
C         79.55900       -1.58900       97.14300
C         77.48500       -4.78700       97.49800
C         74.71300       -3.53800       95.27300
C         76.80600       -4.00400       92.15900
C         78.75300       -7.27400       92.58900
C         75.62100       -8.79700       94.06800
C         73.95200       -6.79700       91.33600
C         70.87500       -5.32100       93.04100
C         68.92600       -2.49400       94.51200
C         68.61100       -3.32200       98.14100
C         69.86000       -1.77100      101.34000
C         73.16600       -3.48900      102.16900
C         75.64300       -3.07700      105.02300
C         78.89800       -5.03600      104.56400
C         76.25000       -6.83200      102.51000
C         73.44300       -9.12600      103.56400
C         71.86900      -11.45000      105.98700
C         68.82300      -11.45400      103.79100
C         68.44500       -9.55400      100.51400
C         65.66600      -10.29600       98.09900
C         66.81400       -8.58200       94.96700
C         69.47700      -11.14000       94.18700
C         70.05800      -12.74900       90.84500
C         66.95400      -14.95000       90.82200
C         68.60800      -18.32300       90.45400
C         66.39300      -21.11300       89.12200
C         65.73600      -24.13500       91.30100
C         66.95900      -22.09400       94.19500
C         70.13100      -24.08600       94.54000
C         73.30000      -22.49800       93.22400
C         76.97700      -21.91000       93.94500
C         80.26300      -20.02800       93.98300
C         80.66000      -21.21500       90.42100
C         77.37900      -19.54000       89.47700
C         78.81700      -15.99100       89.48400
C         82.44800      -15.25800       88.65000
C         83.61600      -14.50200       92.20400
C         80.61900      -16.37200       93.52400
C         78.04600      -14.47100       95.57400
C         74.98300      -15.19400       97.67900
C         73.88500      -12.71400       95.06100
C         70.54200      -14.44500       94.94600
C         67.18000      -14.12600       96.68800
C         68.47100      -15.50200      100.07400
C         67.30600      -15.33900      103.68500
C         69.80200      -17.30200      105.82700
C         67.34800      -17.00400      108.69700
C         65.15400      -19.41100      106.73000
C         67.28000      -21.11100      104.09900
C         70.80000      -21.60700      102.71600
C         73.28100      -18.99100      101.62900
C         72.93000      -20.71900       98.27800
C         69.28800      -21.43300       97.92500
C         67.43800      -18.69900       95.98100
C         63.73200      -18.55800       96.75500
C         60.91300      -19.06200       94.29800
C         58.82500      -16.27000       95.76100
C         59.01400      -12.98000       97.66800
C         56.36800      -10.47300       98.63000
C         57.39500       -7.64400      101.04200
C         54.19700       -5.64100      101.63900
C         53.01100       -3.41900      104.47600
C         49.98900       -2.44400      106.53300
C         49.01900       -0.68200      109.79000
C         50.37000       -2.66600      112.77500
C         46.89200       -1.81500      114.07700
C         45.54600       -4.50000      111.72800
C         46.70400       -8.09900      111.87500
C         47.83200       -8.40300      115.51200
C         49.06500      -12.01100      115.19700
C         47.55900      -14.24600      112.50400
C         44.08000      -15.70500      111.96500
C        -26.70300       -8.75000      -97.36100
C        -24.49100       -6.21000      -98.26200
C        -24.13600       -3.32900      -96.60800
C        -23.92000        1.13500      -97.23500
C        -21.82100        4.69200      -99.10300
C        -18.03200        6.09000      -99.09200
C        -17.31400       10.26700      -99.17600
C        -14.24800       13.01500     -101.69200
C        -14.26300       10.60100     -104.26300
C        -17.88800       10.69800     -103.61900
C        -17.96900       14.34500     -104.08700
C        -15.51700       14.03800     -107.14300
C        -17.83500       11.45000     -108.41800
C        -20.93400       13.77500     -107.50800
C        -18.78500       16.44500     -109.05600
C        -18.51700       13.73400     -111.94300
C        -21.34800       15.48800     -111.01600
C        -23.50900       18.88800     -110.88800
C        -21.08700       20.27700     -113.84400
C        -22.35400       17.81100     -116.29800
C        -25.80900       18.47800     -115.18400
C        -25.55100       22.24500     -115.01500
C        -23.73600       22.49700     -118.32200
C        -25.98600       19.88300     -120.32800
C        -28.69600       22.74900     -119.79700
C        -26.76600       24.36100     -121.38300
C        -28.11900       22.66700     -124.67300
C        -31.98100       23.96900     -124.22200
C        -30.44800       27.63100     -125.37200
C        -30.32200       26.83800     -128.30100
C        -33.92300       25.21200     -128.49300
C        -37.86100       24.73300     -128.56900
C        -35.95600       28.42600     -128.64300
C        -34.40700       27.17000     -131.73900
C        -37.70900       26.55700     -133.25500
C        -38.82700       29.96200     -132.43000
C        -35.89400       31.45400     -134.07300
C        -36.55900       29.58400     -137.17500
C        -38.94400       28.35300     -137.67900
C        -40.08300       30.16800     -136.44300
C        -38.95100       32.44400     -138.15400
C        -37.46200       30.80300     -141.08900
C        -40.42600       28.65600     -141.49600
C        -42.67500       31.55900     -141.36100
C        -41.68700       33.98300     -143.20300
C        -41.84000       31.20000     -145.77100
C        -45.62200       31.00500     -145.52000
C        -45.83600       34.80700     -145.16900
C        -43.74500       35.25800     -148.32600
C        -45.15200       32.07100     -149.87300
C        -48.21700       34.29900     -150.31500
C        -46.47200       35.67700     -153.39900
C        -46.31000       32.22100     -154.97100
C        -50.04600       31.63800     -154.50300
C        -50.40400       34.22100     -157.26900
C        -48.53500       32.03400     -159.81200
C        -51.11900       29.31800     -159.25100
C        -53.55800       32.18000     -159.85300
C        -51.89300       33.22700     -163.08200
C        -52.16400       29.65100     -164.29000
C        -55.71200       29.85800     -162.94500
C        -57.25700       32.11900     -165.61700
C        -54.24400       31.49500     -167.85000
C        -55.39800       28.00500     -168.86600
C        -59.10400       28.76300     -168.50600
C        -58.53900       31.63300     -170.92300
C        -56.57400       29.24300     -173.11000
C        -59.51300       26.78200     -173.05500
C        -62.04100       29.20800     -174.61200
C        -59.84800       29.58800     -177.69700
C        -58.29200       26.18800     -178.44600
C        -62.02000       25.48600     -178.66600
C        -62.69000       28.40700     -181.01100
C        -60.00200       26.98700     -183.26600
C        -61.31800       23.41200     -182.98100
C        -64.80600       24.75900     -183.61700
C        -63.76500       26.51900     -186.87100
C        -61.28500       23.72300     -187.52700
C        -64.25500       21.32400     -187.67600
C        -66.57900       23.33300     -189.85800
C        -63.58200       24.04600     -192.11200
C        -62.29300       20.46100     -192.29200
C        -65.80300       19.39100     -193.41100
C        -66.30400       22.04000     -196.04400
C        -62.81500       21.36000     -197.35100
C        -64.31100       17.94000     -197.99500
C        -67.68200       18.47500     -199.68800
C        -65.50700       20.44700     -202.13100
C        -62.61700       18.02200     -202.74200
C        -65.43800       15.53500     -203.18300
C        -67.16400       17.66100     -205.81600
C        -63.72000       17.76400     -207.37400
C        -62.47100       14.19400     -207.21800
C        -65.96500       13.96100     -208.66700
C        -66.28800       16.74800     -211.24200
C        -62.58500       16.25900     -211.83200
C        -63.83000       12.76300     -212.75300
C        -66.68600       13.95000     -214.92700
C        -64.24900       15.72100     -217.29900
C        -62.38500       12.43800     -217.58500
C        -65.33400       10.98000     -219.53000
C        -66.53900       14.24200     -221.17800
C        -62.97700       14.43900     -222.48600
C        -63.06200       10.83400     -223.66400
C        -66.55800       11.16500     -225.16100
C        -65.05000       14.00900     -227.13200
C        -61.88300       12.13700     -228.06600
C        -63.96200        9.56800     -229.97600
C        -66.73200       11.78900     -231.30600
C        -64.02700       13.96500     -232.85600
C        -62.61700       10.97800     -234.72800
C        -65.95100        9.44400     -235.69900
C        -67.02700       12.86200     -236.88800
C        -63.64300       13.46400     -238.57400
C        -64.31800       10.22500     -240.37500
C        -68.04400       10.89200     -240.74500
C        -66.95700       13.86600     -242.89000
C        -64.27100       12.62500     -245.32000
C        -66.89500        9.99700     -246.15400
C        -69.08900       12.90100     -247.09500
C        -66.48900       14.07700     -249.59200
C        -67.33600       11.36100     -252.04300
C        -71.10200       11.83800     -252.01400
C        -71.69900       15.57900     -252.19600
C        -70.09200       18.63300     -253.77800
C        -67.38500       20.36300     -251.70500
C        -65.30600       18.76900     -248.90400
C        -63.90300       20.27600     -245.70300
C        -60.28700       19.05300     -245.48700
C        -60.45400       18.35200     -241.78600
C        -57.83400       16.40600     -239.87800
C        -58.14300       15.66800     -236.12000
C        -54.99100       16.61500     -234.19100
C        -54.98700       13.89300     -231.58700
C        -51.99000       15.29000     -229.73800
C        -53.96100       18.04300     -227.98000
C        -56.58900       15.45100     -227.12600
C        -53.76800       12.98700     -226.34000
C        -52.44000       15.67600     -224.00900
C        -55.70800       16.46300     -222.16200
C        -55.87800       12.74600     -221.52700
C        -52.37000       12.62900     -220.05100
C        -52.48700       15.85800     -218.05500
C        -55.86000       15.02900     -216.51700
C        -54.68500       11.49100     -215.74300
C        -51.51000       12.84500     -214.19900
C        -53.69500       15.41100     -212.39800
C        -55.38700       13.06800     -209.95800
C        -51.98900       12.71100     -208.29900
C        -53.06600       12.44400     -204.64800
C        -55.74200       13.51900     -202.14900
C        -56.50900       13.93300     -198.43600
C        -55.26300       11.42700     -195.80600
C        -54.78500       11.01800     -192.00200
C        -54.67000       12.23100     -189.45900
C        -56.88600       13.51300     -186.37300
C        -57.76500       16.19200     -183.39200
C        -58.14300       17.00500     -179.77900
C        -57.59600       14.18200     -177.21700
C        -57.64300       14.66800     -173.39900
C        -60.43100       17.12500     -171.93500
C        -59.93900       19.02600     -169.20300
C        -60.76000       16.45600     -166.40900
C        -57.60400       17.02300     -165.06700
C        -57.12900       20.76700     -165.06300
C        -57.74900       20.07400     -161.36700
C        -59.85500       17.56000     -159.70100
C        -58.33900       17.26700     -156.24500
C        -57.41200       20.89300     -154.90000
C        -58.47200       23.91300     -153.02300
C        -57.96900       21.99600     -149.82300
C        -59.97300       20.60000     -147.41700
C        -58.55900       19.09500     -145.17700
C        -57.36900       22.13700     -144.05800
C        -55.98200       23.89700     -141.25300
C        -58.71900       22.82800     -138.94100
C        -61.15300       25.59100     -138.42700
C        -63.12300       25.71400     -141.07000
C        -66.09300       26.19800     -139.39200
C        -66.88800       29.77500     -140.09800
C        -25.83400       20.95700      -91.95600
C        -23.89600       19.48500      -94.46100
C        -26.40400       17.00400      -94.97600
C        -29.38600       19.82900      -95.20900
C        -27.56000       21.86000      -98.21000
C        -27.45600       18.93000     -100.89700
C        -31.01700       18.42000     -100.12300
C        -31.83700       21.84800     -101.19300
C        -30.04900       21.38600     -104.37200
C        -31.88800       18.28800     -105.09200
C        -35.08500       20.49300     -104.81900
C        -34.80500       23.11800     -107.51300
C        -33.13700       20.21900     -109.52200
C        -36.27100       18.51800     -109.26700
C        -38.08600       21.70100     -109.59100
C        -36.31400       22.50000     -112.71300
C        -37.17400       19.23400     -114.17600
C        -40.76300       19.76900     -113.50500
C        -40.67200       23.05400     -115.13900
C        -39.12700       21.62700     -118.46600
C        -41.41200       18.76900     -118.68600
C        -44.83700       19.58900     -117.94700
C        -44.11800       22.58500     -119.72800
C        -44.17800       20.28200     -122.31800
C        -47.04900       17.32300     -122.39300
C        -48.25800       20.03700     -123.54600
C        -46.73500       22.37800     -126.05100
C        -45.69800       18.93700     -127.00000
C        -48.33200       17.85700     -129.54400
C        -48.37800       21.35200     -130.69700
C        -44.88500       21.08900     -132.10500
C        -46.07500       17.47900     -132.74800
C        -49.57900       17.69000     -134.26200
C        -48.62100       20.58900     -136.48800
C        -46.08200       18.13500     -137.45600
C        -47.76900       15.35900     -139.77900
C        -49.91000       18.28300     -140.93800
C        -47.08700       20.82300     -142.53700
C        -46.11800       17.21000     -144.11000
C        -49.63600       17.41900     -145.74800
C        -49.92600       20.71300     -147.38600
C        -46.18800       19.90500     -148.80900
C        -47.87900       16.80800     -150.44700
C        -51.43800       18.48800     -151.33600
C        -49.12500       20.87500     -153.58300
C        -46.41400       17.69500     -154.72500
C        -49.83100       16.78500     -156.27100
C        -49.71800       19.75700     -158.47800
C        -46.03800       20.18100     -159.96800
C        -45.13400       16.33400     -161.03100
C        -49.12800       17.42700     -161.27400
C        -48.56200       20.19000     -164.22900
C        -44.97000       19.52600     -165.91000
C        -46.31100       15.79200     -167.23100
C        -49.89800       17.03700     -168.34000
C        -49.20300       18.66400     -169.44500
C        -46.24400       18.34600     -171.85100
C        -48.21400       15.47000     -173.32200
C        -50.95300       17.96700     -174.25100
C        -48.17200       19.64000     -176.27200
C        -46.95500       16.46400     -177.96200
C        -50.77200       16.16100     -178.30400
C        -50.94700       19.22600     -179.56200
C        -48.00400       18.23400     -181.70300
C        -50.30500       16.98100     -183.54200
C        -52.07100       19.99900     -184.88700
C        -49.39000       21.35000     -187.38000
C        -49.77000       17.89100     -188.96100
C        -53.34500       18.76100     -189.99000
C        -52.79300       22.39200     -190.54500
C        -50.29500       21.70200     -193.23600
C        -53.05900       19.06100     -194.36100
C        -55.04400       22.26100     -194.88100
C        -52.59300       24.92100     -196.07200
C        -50.86200       22.50000     -198.44700
C        -54.24500       21.62100     -199.96600
C        -56.44300       24.75900     -200.04200
C        -53.53300       26.82100     -201.39900
C        -51.58400       24.25500     -203.45200
C        -52.78400       20.68300     -204.15400
C        -56.25600       21.97800     -205.05700
C        -56.09500       25.49700     -206.35200
C        -54.03400       23.80900     -209.06900
C        -56.03400       20.55400     -209.38400
C        -58.83900       22.90500     -210.40700
C        -56.76200       25.17800     -212.61900
C        -56.08600       22.42400     -215.15700
C        -59.43900       20.69800     -214.78700
C        -60.72000       24.22400     -215.64200
C        -58.26900       24.79400     -218.47600
C        -59.32100       21.62000     -220.24000
C        -63.03000       22.14100     -219.56600
C        -62.39500       25.26000     -221.68300
C        -60.47100       23.55000     -224.44900
C        -63.46200       21.20600     -224.73000
C        -65.91300       24.09400     -225.09800
C        -64.20300       25.13800     -228.34700
C        -64.02000       21.56300     -229.51500
C        -67.73200       20.89200     -229.28700
C        -68.29500       24.13700     -231.14200
C        -65.57900       23.47400     -233.70600
C        -67.34100       20.22800     -234.39000
C        -70.92500       21.52700     -233.89300
C        -70.15900       23.82900     -236.81600
C        -68.15000       21.56000     -239.09100
C        -71.18900       19.28100     -239.10800
C        -73.59000       22.09800     -240.00800
C        -70.92800       22.93800     -242.61700
C        -70.43700       19.60700     -244.38100
C        -74.17000       19.34200     -243.77600
C        -74.39300       22.37500     -246.02300
C        -71.50900       21.28700     -248.22700
C        -73.86400       18.34800     -248.68300
C        -76.86900       20.13200     -250.23300
C        -75.29800       19.49600     -253.59000
C        -73.76400       16.07900     -254.40300
C        -70.49400       15.14900     -255.99300
C        -70.88100       14.40400     -259.71200
C        -68.95300       12.72400     -262.45900
C        -69.19800       12.67100     -266.25800
C        -68.03500        9.20300     -267.17700
C        -68.08600        8.68900     -270.89800
C        -68.09700        4.92500     -271.32100
C        -64.98700        3.50900     -272.94900
C        -65.28300        1.94600     -276.35000
C        -63.97400       -1.54900     -275.55400
C        -65.77400       -4.06000     -273.32900
C        -66.21500       -7.64400     -272.13500
C        -67.55600       -9.84500     -269.33600
C        -64.60500       -8.67600     -267.30300
C        -61.40400       -6.61600     -267.72000
C        -58.96300       -9.19800     -269.04400
C        -61.33000       -9.39200     -272.01900
C        -60.67300       -5.72500     -272.52100
C        -56.88300       -5.74400     -272.31900
C        -56.48000       -8.68500     -274.69800
C        -59.39000       -7.02800     -276.43600
C        -56.91900       -4.07600     -276.54400
C        -58.38900       -1.46100     -274.13100
C        -55.13500       -0.63100     -272.39500
C        -55.54400        2.50900     -270.26200
C        -56.31800        1.79800     -266.63300
C        -59.70000        3.50300     -266.30100
C        -63.45600        3.02500     -266.00800
C        -64.67000        0.49900     -268.52000
C        -67.96400       -1.16800     -268.69400
C        -68.59900       -4.92400     -268.60100
C        -71.19000       -7.59700     -269.06900
C        -70.19800      -11.02000     -267.70900
C        -73.59200      -12.62800     -268.39400
C        -75.65600      -12.00400     -271.53100
C        -78.44300      -11.45300     -269.03000
C        -76.14700       -9.41400     -266.79700
C        -77.31000       -5.87900     -267.68900
C        -73.76300       -4.45400     -268.06400
C        -72.34500       -2.39000     -265.23000
C        -69.31000       -0.14500     -264.98600
C        -66.14800       -1.06800     -263.09700
C        -62.71500        0.42600     -262.94700
C        -59.95200       -1.83600     -264.25200
C        -56.24200       -1.47400     -263.79200
C        -54.58500       -2.44700     -266.98400
C        -50.94400       -1.97400     -266.02200
C        -50.32900       -3.13800     -262.46200
C        -49.33900       -6.73700     -263.12900
C        -50.37200       -7.78300     -266.64200
C        -53.57800       -5.81900     -266.28700
C        -57.09400       -7.19800     -266.68100
C        -57.56800       -6.71400     -262.98100
C        -61.17400       -5.77700     -262.21100
C        -61.09100       -3.57100     -259.05100
C        -63.44600       -5.28500     -256.64400
C        -63.12900       -2.93000     -253.75200
C        -61.31100        0.42900     -253.56600
C        -59.77400        2.17300     -250.50100
C        -57.48400        5.20100     -250.82100
C        -58.80000        8.22200     -248.94700
C        -61.83100        7.04400     -247.02200
C        -64.00200        9.29000     -249.14800
C        -66.76500        6.72300     -248.63300
C        -68.83900        5.25400     -245.83600
C        -68.13900        1.56900     -245.59500
C        -70.27800        1.74300     -242.51900
C        -73.02300        0.17100     -244.56700
C        -75.53500       -2.67200     -244.19600
C        -76.15900       -5.83400     -246.19100
C        -77.92200       -4.88100     -249.40800
C        -75.44400       -2.03500     -249.96100
C        -72.70300       -4.65400     -249.73400
C        -73.98800       -7.54200     -251.79700
C        -75.20300       -4.92300     -254.26500
C        -71.95700       -2.94000     -254.20500
C        -71.15300        0.64300     -253.28600
C        -68.64000        3.43200     -253.74500
C        -67.75400        5.52700     -256.78400
C        -66.21000        3.32900     -259.50200
C        -63.98200        6.12800     -260.56300
C        -63.80800        9.84900     -261.24500
C        -62.98800       12.21200     -264.12100
C        -59.30000       13.18200     -264.07500
C        -57.78600       16.67400     -264.40300
C        -59.91000       17.78500     -267.31000
C        -60.39200       14.66700     -269.44900
C        -63.91200       13.48700     -270.41600
C        -63.46800        9.98100     -269.09700
C        -62.90000        9.36000     -265.36700
C        -59.38900        7.92200     -265.53600
C        -59.42400        8.22100     -261.76200
C        -60.54300        5.19500     -259.68100
C        -63.13000        5.51000     -256.95500
C        -63.22700        3.86300     -253.51400
C        -65.93300        1.20700     -253.61100
C        -67.04200       -2.29800     -252.83900
C        -67.97700       -3.92200     -256.11700
C        -70.94100       -5.79900     -254.70300
C        -70.70500       -9.34400     -253.41500
C        -73.16200      -10.64000     -255.97300
C        -71.12200       -9.44200     -258.92700
C        -67.90400      -10.38300     -257.14000
C        -69.03500      -13.96700     -256.81500
C        -70.54000      -14.02700     -260.29200
C        -67.19400      -12.83900     -261.50600
C        -65.42000      -15.34200     -259.28900
C        -67.92400      -18.12000     -260.08700
C        -66.65800      -17.82500     -263.65700
C        -63.85100      -20.11000     -262.55900
C        -60.17400      -19.04100     -262.42900
C        -60.38200      -15.79400     -260.51900
C        -56.88700      -15.01200     -259.17300
C        -57.15700      -12.48500     -256.33400
C        -54.64500       -9.73100     -255.67000
C        -54.84400       -7.21500     -252.85200
C        -52.49200       -4.28500     -252.51400
C        -51.96400       -1.78900     -249.70300
C        -49.79300        1.17900     -248.74100
C        -48.03000        2.56400     -245.74200
C        -48.68500        6.15100     -244.64200
C        -44.88500        6.01300     -244.43900
C        -44.71100        5.14200     -248.12000
C        -44.34400        1.37400     -248.03400
C        -46.81400       -0.88300     -249.85600
C        -47.47000       -4.57000     -250.19900
C        -49.29500       -7.14500     -252.29000
C        -51.44700      -10.05300     -251.22600
C        -52.03800      -12.47600     -254.08300
C        -54.61600      -15.10800     -253.31600
C        -54.43200      -17.03200     -256.57000
C        -57.77500      -18.66300     -255.90600
C        -60.39100      -16.22700     -254.65600
C        -63.90100      -17.71700     -254.95800
C        -66.77900      -15.90500     -253.22800
C        -70.21400      -17.54600     -253.25200
C        -73.82100      -16.46500     -253.13900
C        -76.15900      -14.73300     -250.73200
C        -77.84600      -18.01100     -249.79200
C        -74.30200      -19.25500     -249.17200
C        -73.55600      -16.17900     -247.09300
C        -71.14600      -15.27800     -249.85800
C        -68.85800      -17.87700     -248.34600
C        -65.46300      -16.38700     -249.26900
C        -62.32000      -18.53500     -249.29700
C        -59.11700      -18.56400     -251.38100
C        -56.75400      -21.21800     -252.68300
C        -53.14800      -20.15000     -252.56000
C        -51.57800      -16.92800     -251.27900
C        -48.26000      -15.33800     -252.23200
C        -47.18800      -11.87400     -251.14000
C        -45.34900       -9.63100     -248.69300
C        -47.97400       -9.20000     -245.98300
C        -48.87100      -12.63900     -244.61500
C        -51.88500      -14.75100     -245.50000
C        -54.46000      -12.99200     -243.40800
C        -57.35800      -15.06400     -244.73400
C        -56.37300      -18.70300     -244.34700
C        -53.88500      -18.13600     -241.52900
C        -55.27000      -15.88200     -238.79700
C        -53.06900      -13.17400     -237.27800
C        -49.31000      -13.62300     -237.70300
C        -48.93600      -12.69900     -234.05700
C        -51.61100      -14.71500     -232.27300
C        -50.74800      -18.42800     -232.04200
C        -52.77200      -21.61500     -231.77400
C        -56.53300      -21.13800     -231.41600
C        -55.83500      -17.40200     -231.17200
C        -54.26000      -17.34600     -234.64000
C        -56.86000      -19.85100     -235.86100
C        -59.60100      -17.64600     -234.49600
C        -58.79100      -15.28200     -237.37500
C        -58.93900      -17.27300     -240.56600
C        -61.54700      -16.18100     -243.11400
C        -61.09700      -18.96500     -245.59300
C        -64.52600      -20.59700     -245.44600
C        -66.06900      -17.61200     -243.72100
C        -69.57400      -16.31900     -244.29500
C        -69.92500      -12.64400     -245.18600
C        -71.24400      -10.55600     -242.28200
C        -72.10700       -6.83400     -242.02200
C        -73.08900       -4.71700     -239.02000
C        -76.74500       -5.54600     -239.75100
C        -76.15000       -9.11100     -240.95900
C        -73.97000      -11.36900     -238.77400
C        -72.12900      -14.59300     -239.58200
C        -68.79500      -14.20900     -237.80700
C        -67.28500      -16.58900     -235.29000
C        -69.86900      -15.96900     -232.60700
C        -72.27500      -17.35800     -230.06000
C        -75.79200      -15.89700     -230.06600
C        -74.96500      -13.68400     -227.11300
C        -73.96400      -10.29800     -225.72200
C        -73.10400       -7.89700     -228.58200
C        -69.67900       -7.83300     -226.90300
C        -69.23100      -10.75200     -229.30400
C        -70.51700       -9.70100     -232.78100
C        -67.40600       -8.68600     -234.74200
C        -69.17100       -6.33200     -237.11300
C        -70.69200       -3.70900     -234.88000
C        -72.78300       -0.64100     -235.76200
C        -71.22900        1.57200     -238.43100
C        -68.65600       -1.18100     -238.70200
C        -67.75900       -2.42600     -242.16400
C        -69.39000       -5.75600     -242.93600
C        -67.08400       -8.38700     -244.48600
C        -66.20400      -12.09500     -244.00200
C        -65.82400      -12.30900     -240.22300
C        -64.83900      -15.32000     -238.05600
C        -64.03500      -14.80100     -234.38000
C        -63.55400      -11.42000     -236.02200
C        -60.52400      -10.29800     -237.93100
C        -56.95000      -10.89800     -238.94900
C        -57.50600       -8.04400     -241.43100
C        -60.43900       -5.94200     -242.59100
C        -59.98900       -3.80300     -245.76500
C        -63.58900       -2.76600     -245.25000
C        -62.69500       -1.04200     -242.00100
C        -62.86400        2.64100     -241.21600
C        -60.17100        4.75500     -242.76700
C        -58.65200        5.96100     -239.51100
C        -56.92400        9.23000     -240.29300
C        -53.15700        8.69200     -240.26600
C        -53.89800        5.02800     -239.72400
C        -52.41700        3.89400     -236.41500
C        -55.05500        4.45500     -233.79900
C        -56.46300        3.45200     -230.40000
C        -59.71000        2.43100     -228.75500
C        -60.27800        5.80800     -227.11400
C        -60.74800        6.44800     -230.81900
C        -62.65400        3.36900     -231.92800
C        -66.33600        4.32600     -231.49900
C        -66.80200        0.77100     -230.27300
C        -63.24900        0.18600     -229.13700
C        -63.25100       -2.57100     -231.72300
C        -60.32500       -2.85900     -234.09000
C        -62.38200       -0.72800     -236.46800
C        -59.49600        0.29500     -238.69500
C        -58.83200       -0.98100     -242.20900
C        -56.27600       -3.66300     -241.37900
C        -53.91300       -6.33800     -242.47600
C        -52.44200       -7.52200     -239.18500
C        -49.93900       -9.89400     -240.73400
C        -48.05500       -6.73700     -241.78400
C        -48.86700       -3.63500     -239.70000
C        -50.06500       -5.32000     -236.53200
C        -53.41500       -3.96500     -235.43800
C        -55.05300       -0.62300     -234.66100
C        -53.67000        0.77200     -237.87000
C        -56.29100        1.62700     -240.49500
C        -54.14000        1.27100     -243.56300
C        -52.82500        4.02800     -245.84400
C        -54.24300        2.40800     -248.93900
C        -55.54500       -0.99800     -249.89100
C        -57.90900       -2.37400     -252.52200
C        -58.94900       -5.76200     -253.92800
C        -58.75900       -6.82600     -257.60500
C        -59.37000       -9.87300     -259.83100
C        -57.93900      -11.15900     -263.11000
C        -58.81800      -14.83700     -263.81000
C        -56.43100      -17.69300     -263.26600
C        -54.43800      -19.33700     -266.04000
C        -51.05800      -20.67500     -264.84700
C        -49.92100      -21.84400     -261.39000
C        -25.68400        4.74500     -102.14200
C        -29.26100        5.59400     -101.95100
C        -28.61400        8.97100     -103.26000
C        -26.76600        7.63100     -106.13700
C        -29.57200        5.43400     -107.06000
C        -31.93500        8.25900     -106.96300
C        -29.75900       10.28200     -109.12800
C        -29.61200        7.62600     -111.66800
C        -33.29300        7.14300     -112.30100
C        -33.66700       10.71000     -113.12200
C        -31.08800       10.49500     -115.72800
C        -32.80900        7.68600     -117.37000
C        -35.97100        9.55000     -117.43100
C        -34.35200       12.47800     -118.94700
C        -32.94900       10.43900     -121.66200
C        -36.68600        9.58800     -122.26800
C        -36.95700       13.44800     -122.33100
C        -34.13100       12.89200     -124.95200
C        -35.01400       10.98900     -127.63400
C        -37.04100       12.64400     -128.01800
C        -36.68700       16.19900     -128.53900
C        -34.64800       14.65900     -131.12500
C        -36.49900       15.55600     -132.54500
C        -38.96800       18.33400     -132.86500
C        -35.67800       20.04700     -133.28700
C        -34.46000       17.12100     -135.32900
C        -37.61200       17.29900     -137.48800
C        -38.31800       21.03900     -137.81500
C        -34.61100       21.14700     -138.30600
C        -34.84300       18.48400     -141.00800
C        -38.20700       19.84900     -142.97600
C        -36.32200       22.99900     -142.97000
C        -33.53500       21.47100     -144.82500
C        -35.77200       20.73300     -145.91400
C        -37.65500       24.01400     -146.40600
C        -34.33800       25.71200     -147.17300
C        -33.94200       23.50700     -149.79500
C        -37.55600       24.51000     -150.72600
C        -36.96500       28.24500     -151.22900
C        -33.52800       27.53900     -152.80400
C        -35.08000       25.04700     -155.30000
C        -37.68500       27.59700     -156.32000
C        -35.09900       29.92000     -157.76100
C        -35.89000       26.47600     -158.99000
C        -39.42300       25.31600     -159.76600
C        -40.43900       28.85800     -160.63100
C        -41.79700       26.82000     -163.85300
C        -41.13000       29.83600     -166.15700
C        -39.47000       27.73700     -168.69000
C        -42.82900       26.27500     -169.71000
C        -43.07800       29.46900     -171.93100
C        -44.80100       26.78300     -173.95600
C        -48.57700       27.26100     -172.20200
C        -49.04300       31.14200     -172.94500
C        -47.11700       30.78800     -176.17200
C        -49.32100       27.88800     -177.20600
C        -52.43900       29.95800     -176.39300
C        -51.20500       32.52100     -178.60000
C        -49.77600       30.67400     -181.59800
C        -53.33000       29.48400     -181.48900
C        -54.61100       33.00200     -182.08300
C        -52.17200       33.13100     -184.99800
C        -53.21400       29.72400     -186.28100
C        -56.21600       30.85500     -186.13000
C        -56.00600       33.92000     -188.36800
C        -54.83900       32.04900     -191.45900
C        -57.62500       29.58300     -190.61500
C        -60.52700       31.84300     -191.65300
C        -58.72300       33.48100     -194.56400
C        -58.95800       29.85400     -195.64700
C        -62.72300       29.82200     -195.05300
C        -62.96300       32.13100     -198.05700
C        -60.74700       29.96800     -200.21600
C        -63.42500       27.39400     -199.63800
C        -66.06000       29.92300     -200.71200
C        -63.61800       30.69000     -203.50200
C        -63.04900       27.04300     -204.30900
C        -66.76800       26.32200     -203.80500
C        -67.84900       28.60900     -206.66400
C        -65.04000       28.16400     -209.15500
C        -65.96500       24.52800     -208.51300
C        -69.67700       25.21000     -209.12400
C        -69.14400       27.28000     -212.28200
C        -67.13700       24.57900     -213.96000
C        -69.59000       21.74600     -213.18000
C        -72.24400       24.14300     -214.52800
C        -70.03400       24.23700     -217.62000
C        -68.91600       20.61100     -218.11500
C        -72.70900       20.35400     -218.39700
C        -73.10600       23.12300     -220.97300
C        -70.72500       20.82900     -222.82300
C        -71.76300       17.18500     -222.21600
C        -75.20000       18.22600     -223.47400
C        -73.81000       20.13300     -226.47900
C        -71.74400       17.00400     -227.10400
C        -75.00800       15.02800     -226.83000
C        -76.55500       17.36100     -229.34700
C        -73.56200       17.20500     -231.61600
C        -74.20300       13.49100     -231.80900
C        -77.63900       13.39100     -233.45100
C        -76.59700       15.94400     -236.04900
C        -73.55900       13.96600     -237.09000
C        -76.16900       11.26400     -237.53100
C        -78.33400       13.56200     -239.63300
C        -75.07400       14.05800     -241.55700
C        -74.05200       10.47000     -242.27500
C        -77.66600       10.29400     -243.42100
C        -76.44000       12.30500     -246.43700
C        -72.96000       11.19600     -247.53300
C        -74.44600        7.86000     -248.55600
C        -75.38100        8.36300     -252.21400
C        -72.24300        8.16000     -254.37400
C        -71.43000       11.06900     -256.67300
C        -73.94000       11.67500     -259.44200
C        -73.06400       10.72400     -262.97200
C        -74.30100       12.46500     -266.02600
C        -73.78500        9.80500     -268.68900
C        -77.14300        8.05200     -268.55900
C        -77.89600        5.30700     -271.04400
C        -81.44600        4.69700     -272.26200
C        -83.20600        1.37800     -271.88500
C        -84.64400        0.23600     -275.18700
C        -82.41100       -1.10100     -277.92700
C        -82.53000       -3.20300     -281.05000
C        -80.46800       -4.15500     -284.11000
C        -79.68800       -0.45200     -284.55200
C        -80.61900        3.04000     -283.23500
C        -83.32300        3.45600     -285.79000
C        -84.78700        0.28100     -284.40900
C        -85.02900        2.10500     -281.08100
C        -85.69600        5.40500     -282.75100
C        -88.75100        3.71800     -284.22400
C        -89.11000        1.61500     -281.10500
C        -89.79400        4.96500     -279.49100
C        -86.35900        6.50700     -278.84800
C        -86.96600       10.23900     -279.31400
C        -83.65100       11.47800     -278.01400
C        -80.03300       11.21500     -279.10900
C        -77.44600        9.68300     -276.84400
C        -75.91700        6.39000     -275.86700
C        -78.00500        3.24100     -276.40800
C        -77.50800       -0.53200     -276.46400
C        -78.22200       -2.74600     -279.49300
C        -77.66200       -6.13600     -281.00300
C        -77.88300       -6.84300     -284.74100
C        -79.33500      -10.32100     -285.20400
C        -76.20900      -12.22600     -286.27100
C        -74.46800      -10.43000     -283.40900
C        -73.61300      -12.24800     -280.17600
C        -73.70600       -9.95300     -277.12600
C        -75.29300       -6.53000     -277.58400
C        -73.31700       -3.26700     -277.36900
C        -73.69500        0.44200     -276.75100
C        -73.10900        2.94800     -279.54800
C        -73.71400        6.61700     -280.21400
C        -77.13100        7.19800     -281.80100
C        -77.80800       10.52000     -283.48000
C        -81.49000       11.21400     -283.98400
C        -83.76400       14.02100     -285.21500
C        -87.38300       15.16200     -285.53400
C        -87.88300       13.00300     -288.59300
C        -87.02500       10.00800     -286.44500
C        -83.65400        8.79500     -287.79800
C        -81.65800        6.13800     -285.95900
C        -78.43500        7.62000     -287.26000
C        -76.16600        5.13100     -285.49700
C        -72.61800        6.44000     -285.56200
C        -69.42200        4.40600     -285.72200
C        -66.93400        7.18700     -285.79200
C        -66.63100       10.90000     -285.16600
C        -63.74800       13.14800     -284.26600
C        -63.14800       16.72800     -283.13500
C        -59.98900       17.28500     -281.16400
C        -56.94700       15.21700     -280.31400
C        -58.08200       12.68800     -277.77900
C        -57.35400        9.40200     -279.61200
C        -54.00800        8.47900     -281.03100
C        -55.82400        6.78600     -283.82600
C        -52.56400        4.89400     -284.56800
C        -54.13800        1.71200     -283.19700
C        -54.29700       -1.88400     -284.27800
C        -56.63300       -4.41900     -285.81500
C        -58.27500       -5.68800     -282.65000
C        -58.18200       -2.22400     -281.21600
C        -59.91100       -1.27100     -284.46600
C        -61.62400       -4.62500     -284.76500
C        -63.34700       -3.88700     -281.49000
C        -62.94100       -0.13100     -281.60000
C        -61.71500        2.48900     -279.14400
C        -62.29900        5.97400     -277.83900
C        -65.36900        6.79800     -275.79800
C        -69.05100        7.40900     -276.22300
C        -70.62300       10.53800     -274.83800
C        -74.44200       11.03500     -274.93500
C        -73.29900       14.35600     -276.42400
C        -70.92700       12.91300     -278.96800
C        -68.25500       15.42100     -277.96100
C        -66.49200       12.09900     -277.57200
C        -63.84600       11.29900     -280.26300
C        -64.32200        7.54000     -281.04000
C        -63.95400        4.56800     -283.32100
C        -66.84100        2.14500     -283.02500
C        -64.69700       -0.83800     -284.02100
C        -64.73100       -2.46900     -287.44900
C        -66.52100       -5.71700     -286.61300
C        -69.28700       -4.08700     -284.55300
C        -69.99700       -1.72200     -287.39300
C        -69.89900       -4.58000     -289.79400
C        -72.36100       -6.49300     -287.65900
C        -74.82300       -3.73700     -288.34500
C        -73.34900       -2.82900     -291.73700
C        -74.34000       -6.42800     -292.70900
C        -77.67300       -7.61800     -291.23800
C        -81.10000       -8.81600     -292.40300
C        -80.33500       -7.86400     -296.02700
C        -81.70600       -4.33700     -295.80200
C        -80.68900       -0.88800     -297.13600
C        -77.77300        0.82000     -295.29600
C        -76.28900        4.33600     -295.88700
C        -72.89000        5.56000     -294.74600
C        -73.32100        9.41200     -294.34200
C        -70.18700       11.48100     -293.68200
C        -70.84900       15.01200     -292.27800
C        -67.57900       16.93600     -292.45100
C        -66.46100       20.26300     -290.97700
C        -63.63300       22.70000     -291.64400
C        -61.81200       25.12800     -289.41600
C        -64.37800       27.68800     -290.52500
C        -67.75200       26.28800     -289.56800
C        -68.49000       24.56100     -292.87300
C        -70.25500       21.24800     -293.00800
C        -70.68900       19.00800     -296.04300
C        -72.53000       15.71500     -295.92700
C        -71.40800       12.98500     -298.35100
C        -73.63400        9.88600     -298.21700
C        -72.77600        6.60100     -299.87400
C        -75.39400        4.14400     -301.08500
C        -75.63100        0.69500     -299.59300
C        -73.04200        0.48800     -296.82900
C        -71.41700       -2.88000     -296.42000
C        -68.28100       -3.81000     -294.52000
C        -66.76000       -7.28600     -294.47900
C        -66.09500       -9.61900     -291.56100
C        -62.56400      -10.13300     -290.32200
C        -62.63700      -13.07100     -292.72400
C        -62.12600      -10.34900     -295.28000
C        -60.18300       -7.82400     -293.21600
C        -63.39100       -5.85500     -292.60000
C        -63.57300       -4.79300     -296.21300
C        -65.37600       -1.71200     -297.33200
C        -68.41300       -1.75100     -299.61900
C        -71.26900        0.38500     -301.01100
C        -73.26600        0.11600     -304.18000
C        -72.69700        3.58200     -305.55600
C        -72.14200        7.12600     -304.28700
C        -74.90100        9.79300     -304.00200
C        -75.72300       13.46100     -303.53600
C        -73.03400       14.48900     -301.06700
C        -71.43500       17.95700     -301.36700
C        -68.20100       16.75400     -299.80600
C        -67.64500       14.76400     -302.96200
C        -66.72600       11.08000     -303.50400
C        -63.23900       10.68900     -302.03700
C        -63.90000        6.96700     -302.15600
C        -64.06900        7.15600     -305.93700
C        -60.35000        7.80200     -305.90600
C        -58.73700       11.11300     -306.94900
C        -55.95000       12.73300     -308.89600
C        -53.37100       14.85200     -307.25500
C        -51.36400       14.46800     -310.37200
C        -48.69100       12.73600     -308.31600
C        -49.25300       10.14700     -311.03700
C        -51.91000        9.07000     -313.49800
C        -52.85500        5.90900     -311.63300
C        -53.88300        8.16900     -308.77200
C        -57.63900        7.74400     -309.13100
C        -57.22000        3.95000     -309.18000
C        -54.61400        4.05100     -306.48800
C        -56.94600        5.65800     -304.02500
C        -60.06100        3.92400     -305.23600
C        -61.70400        3.40200     -301.91000
C        -64.81300        1.24300     -302.37800
C        -64.16500       -2.43400     -301.99700
C        -61.25300       -2.61000     -299.62200
C        -60.13300       -4.79200     -296.78500
C        -59.92800       -2.33200     -293.96700
C        -56.43700       -2.28200     -292.46300
C        -53.91900       -1.11700     -289.88200
C        -50.22400       -0.79700     -289.17300
C        -49.90500       -4.46300     -288.13200
C        -52.21800       -6.36000     -290.50200
C        -51.49800       -4.78200     -293.87700
C        -54.36400       -4.86900     -296.34500
C        -53.19100       -1.91800     -298.42600
C        -53.15500       -2.41200     -302.20100
C        -49.72000       -0.85000     -302.09200
C        -46.32600       -2.31600     -301.30300
C        -45.53500       -1.99800     -297.60800
C        -48.49300       -0.52000     -295.64200
C        -50.18200        2.91400     -295.50500
C        -51.76200        2.22800     -292.16700
C        -48.45800        2.68600     -290.35700
C        -46.63600        5.59600     -292.05200
C        -49.97200        7.39800     -292.28400
C        -50.37700        5.96700     -288.81300
C        -54.02300        4.83100     -288.73400
C        -56.68800        2.21600     -288.85000
C        -58.55700        2.76300     -292.04800
C        -58.96300        0.76400     -295.22100
C        -56.22600        1.87300     -297.63300
C        -55.35000        0.85300     -301.19800
C        -52.05600        2.37300     -302.47700
C        -53.30300        4.68100     -299.76200
C        -56.05600        7.26500     -299.79600
C        -58.27300        9.64200     -301.61900
C        -60.06600       10.21900     -298.36800
C        -59.12300        8.70900     -295.02100
C        -60.43300       10.04200     -291.74800
C        -58.16800        8.48300     -289.21300
C        -55.19900       10.63800     -290.03500
C        -52.99600       12.45300     -287.59800
C        -55.53000       15.06700     -286.46100
C        -53.60900       18.18600     -287.36400
C        -54.74100       21.35100     -285.65900
C        -55.93400       24.28200     -287.74100
C        -56.35700       21.84900     -290.54900
C        -53.48400       23.25200     -292.49100
C        -50.25300       21.35600     -292.47900
C        -47.35000       20.14900     -294.58200
C        -44.62200       17.80700     -295.78500
C        -42.61100       19.25000     -292.96000
C        -45.23700       18.11200     -290.45600
C        -44.30900       14.42100     -290.52500
C        -40.78700       13.20600     -291.29200
C        -41.37400       11.99500     -294.83600
C        -44.47600       14.16100     -294.99600
C        -47.87400       12.54400     -295.45700
C        -51.48500       13.51100     -296.09500
C        -51.57100       11.43000     -292.97000
C        -54.25800       13.72400     -291.67200
C        -58.06400       13.72000     -291.75800
C        -58.28800       14.64300     -295.46900
C        -60.95700       14.29200     -298.18200
C        -59.48600       15.69200     -301.43500
C        -63.00000       15.51500     -302.88600
C        -63.82600       18.37900     -300.49700
C        -60.57300       19.96400     -299.37700
C        -56.79700       20.04400     -299.76700
C        -54.43300       17.12300     -299.40100
C        -52.97100       19.21900     -296.59100
C        -55.97600       20.52500     -294.72300
C        -57.09200       18.26400     -291.86200
C        -60.74300       18.58100     -290.90300
C        -62.07300       19.75500     -287.59900
C        -64.89500       17.22500     -287.63800
C        -65.83500       13.73900     -288.86600
C        -68.89100       11.57000     -288.22000
C        -69.33200        8.43800     -290.42400
C        -72.62700        6.91800     -289.30100
C        -75.21200        4.78100     -291.03500
C        -78.91600        3.99100     -291.39100
C        -81.38700        2.14200     -293.63000
C        -81.34000        3.63800     -297.14700
C        -85.07800        3.22100     -296.71500
C        -85.00400        6.25800     -294.39800
C        -83.66400        9.62300     -295.56600
C        -84.24700        9.44800     -299.31600
C        -82.62200       12.82600     -300.08500
C        -82.55700       15.49800     -297.36500
C        -85.25200       17.53900     -295.59700
C          1.06200        5.55600      -96.75400
C          2.14400        9.12000      -96.61000
C          5.33500       10.19700      -99.57400
C          2.22800        8.08600     -101.82900
C         -0.47600       10.29000     -100.61900
C         -0.48900       12.32400     -104.04300
C         -2.72700       15.15100     -102.33500
C         -5.19000       17.57500     -100.57500
C         -7.83100       19.82200     -100.28300
C         -9.15200       19.77300      -97.22300
C         -7.14500       19.92000      -94.60700
C         -6.48500       21.25300      -91.47000
C         -9.29300       23.12000      -90.94100
C        -12.34100       23.47500      -88.61100
C        -13.84000        1.12000      -93.36700
C        -17.63000        0.02900      -93.99400
C        -20.20400       -0.41300      -92.35300
C        -21.94700        2.33400      -90.05600
C        -24.30100        2.75900      -87.21800
C        -24.40800       34.03300      -87.53900
C        -26.81700       36.59400      -85.58400
C        -30.04600       34.87100      -84.10100
C        -33.50300       34.09000      -82.61500
C        -35.01700       30.51400      -81.44900
C        -35.74400       29.23000      -77.97300
C        -36.12900       25.29600      -77.03800
C        -37.84500       21.85600      -77.65800
C        -36.95800       18.13800      -77.49400
C        -32.92600       17.18600      -77.03400
C        -33.44200       19.63300      -74.72700
C        -36.07200       18.46900      -72.28700
C        -34.07300       15.90900      -71.86400
C        -30.14600       16.30000      -72.64200
C        -30.57800       12.29900      -73.77000
C        -29.60500        9.44900      -76.30200
C        -27.76600        8.08100      -79.01000
C        -25.06200        7.80600      -82.09000
C        -22.15300        8.20500      -84.62200
C        -22.18400       11.37900      -86.36500
C        -23.39100       14.59400      -86.01100
C        -22.89600       17.80000      -84.04600
C        -19.86400       16.28200      -83.73100
C        -18.57500       14.07100      -83.84100
C        -19.36700       12.33300      -82.80000
C        -16.08000       10.75400      -83.23500
C         -3.19500        2.27500     -106.20800
C         -4.34000       -1.26700     -106.04200
C         -1.32300       -4.09900     -104.30800
C         -1.57600       -0.72400     -101.52700
C         -5.24600       -0.96200     -101.20500
C         -4.92000       -2.80500      -97.68900
C         -8.78000       -3.79500      -97.87000
C        -12.61700       -4.32400      -98.09300
C        -15.88400       -4.68000      -96.95000
C        -18.10000       -3.74200      -99.25800
C        -17.77200       -4.86000     -102.34500
C        -17.94100      -10.79900      -98.51100
C        -21.07500      -11.24300      -97.23400
C        -24.78500      -10.41200      -97.86300
C        -15.45100       15.61300      -97.15700
C        -16.71400       17.51800      -93.88200
C        -19.35800       18.60100      -92.72100
C        -21.69400       17.29900      -90.72400
C        -25.18400       17.74900      -90.34100
C        -28.67900       -2.71200      -82.52300
C        -32.62600       -2.22200      -81.92500
C        -33.68500        1.56100      -81.52400
C        -35.49700        4.86100      -80.75600
C        -34.33700        8.65300      -81.60200
C        -35.07300       10.18000      -83.10900
C        -35.46900       14.20100      -83.52800
C        -35.73900       17.72800      -81.90300
C        -34.74100       21.33500      -82.69700
C        -32.16800       21.90600      -85.92700
C        -34.50200       19.74300      -87.13100
C        -37.89100       21.38300      -86.95000
C        -36.09300       22.60800      -90.41200
C        -33.75600       20.12500      -92.68200
C        -35.23400       18.69500      -94.33100
C        -34.21500       16.83200      -94.73600
C        -33.60400       13.39100      -95.34600
C        -31.45600        9.94500      -94.96700
C        -27.80900        9.35000      -93.28100
C        -26.01000        6.17400      -94.23700
C        -28.20900        3.67600      -93.32000
C        -30.50000        0.73700      -93.65200
C        -28.60800        1.26900      -96.10600
C        -27.06800        3.19100      -96.80700
C        -27.05900        7.03200      -97.59700
C        -24.74600        7.79900     -100.34500
