2873
NeuB
N         97.04900        2.57300       65.58300
C         96.78500        1.51100       66.59100
C         97.98500        1.28500       67.50400
O         97.86600        1.40200       68.72400
C         96.40700        0.20200       65.89400
C         96.27700       -0.98400       66.83500
C         95.65400       -2.19300       66.16700
O         94.46600       -2.19200       65.84200
N         96.45500       -3.23100       65.95200
N         99.13600        0.95900       66.92100
C        100.33900        0.72600       67.71700
C        101.62000        0.96400       66.92700
O        101.58000        1.27100       65.73800
C        100.34400       -0.69900       68.27700
C        100.51300       -1.74900       67.20000
O        101.51700       -1.76700       66.48700
N         99.53000       -2.63500       67.07700
N        102.75700        0.80900       67.59900
C        104.05200        1.02500       66.96900
C        104.86400       -0.25600       66.80900
O        106.08100       -0.20400       66.63900
C        104.85700        2.04500       67.77800
C        104.10200        3.34500       67.98800
O        103.77900        4.05100       67.03200
N        103.81200        3.66600       69.24600
N        104.19400       -1.40300       66.86500
C        104.87500       -2.68700       66.70300
C        105.48300       -2.74100       65.30400
O        104.94500       -2.15200       64.36700
C        103.88600       -3.84600       66.84600
C        103.14200       -3.82700       68.16100
O        102.15900       -4.55000       68.33900
N        103.60700       -3.00800       69.09600
N        106.60200       -3.44300       65.16200
C        107.24400       -3.57500       63.86000
C        108.41800       -4.54900       63.89100
O        108.91700       -4.91200       64.95800
C        107.73400       -2.21000       63.35700
C        108.93500       -1.64100       64.11500
C        109.48200       -0.36900       63.48100
O        108.77600        0.66100       63.49700
O        110.61800       -0.40000       62.95800
N        108.83200       -4.98400       62.70500
C        109.97200       -5.88000       62.53900
C        110.32700       -5.88400       61.06600
O        109.58300       -5.34700       60.24700
C        109.67200       -7.30200       63.05100
C        108.62800       -8.05300       62.26200
C        108.92100       -8.58300       61.00800
C        107.36300       -8.26700       62.79800
C        107.97200       -9.31900       60.30000
C        106.40300       -9.00300       62.09900
C        106.71000       -9.53000       60.84600
N        111.46400       -6.46900       60.72000
C        111.87100       -6.47900       59.32800
C        111.94800       -7.83700       58.65800
O        112.36200       -8.83100       59.25400
C        113.22300       -5.77900       59.16600
C        113.24700       -4.33400       59.65200
C        114.14600       -3.46300       58.77500
C        115.55900       -4.01700       58.65900
N        116.41500       -3.17000       57.76900
N        111.52800       -7.85800       57.40100
C        111.59300       -9.05300       56.58100
C        112.69500       -8.62900       55.62200
O        112.44200       -7.95700       54.61900
C        110.26700       -9.29400       55.82700
C        109.12800       -9.47000       56.83800
C        110.37800      -10.53400       54.95500
C        107.75700       -9.64800       56.20600
N        113.92900       -8.99400       55.95500
C        115.04800       -8.58000       55.13300
C        115.20500       -7.09900       55.42300
O        115.26200       -6.70200       56.58700
N        115.23900       -6.27200       54.38400
C        115.37700       -4.82900       54.57100
C        114.03400       -4.09700       54.52500
O        113.99200       -2.86700       54.47500
C        116.30600       -4.25000       53.50100
C        115.86200       -4.59700       52.09300
O        114.75000       -4.26600       51.67600
N        116.73500       -5.26600       51.34800
N        112.94200       -4.85500       54.56100
C        111.59900       -4.27900       54.49600
C        110.92600       -4.21700       55.86600
O        110.65700       -5.24900       56.48100
C        110.73300       -5.11500       53.54900
C        109.77900       -4.32200       52.66700
C        108.68000       -3.62000       53.44100
N        107.62200       -3.16200       52.53600
C        106.49300       -2.57800       52.92900
N        105.59300       -2.20700       52.02700
N        106.26700       -2.35400       54.21800
N        110.65500       -3.00600       56.34000
C        109.99200       -2.82200       57.62700
C        108.49500       -3.04600       57.47400
O        107.89200       -2.64100       56.48200
C        110.24000       -1.41200       58.17000
O        111.58900       -1.25400       58.56700
N        107.90400       -3.69300       58.46800
C        106.48000       -3.98400       58.46300
C        105.86000       -3.52700       59.78200
O        106.47100       -3.66900       60.84600
C        106.25400       -5.50000       58.25800
C        104.82500       -5.86800       58.55600
C        106.61900       -5.87600       56.82800
N        104.65200       -2.97300       59.71000
C        103.98600       -2.49500       60.91000
C        103.02200       -1.36100       60.60700
O        103.02900       -0.80500       59.51000
N        102.19700       -1.01400       61.58700
C        101.20600        0.04500       61.43100
C        101.76800        1.37000       60.91200
O        101.10400        2.07500       60.14200
C        100.48500        0.26600       62.76600
C         99.38900        1.31000       62.72300
C         99.64000        2.63300       63.09500
C         98.10100        0.97700       62.30000
C         98.63400        3.59900       63.04600
C         97.09200        1.93100       62.24500
C         97.36300        3.23900       62.61900
O         96.36200        4.18100       62.56600
N        102.99100        1.71100       61.30800
C        103.57000        2.97200       60.85900
C        104.35700        2.89800       59.55500
O        105.06100        3.84200       59.19500
C        104.43800        3.58400       61.96400
C        103.64700        3.86500       63.22700
O        102.56100        4.44200       63.17600
N        104.19100        3.46100       64.37000
N        104.23500        1.78200       58.84500
C        104.92200        1.62500       57.57200
C        103.90800        1.31800       56.47700
O        102.74500        1.02300       56.75400
C        105.95000        0.49600       57.64200
C        107.01900        0.71400       58.66500
N        106.92500        0.23300       59.95400
C        108.19800        1.37400       58.59400
C        108.00300        0.58500       60.63200
N        108.79000        1.27800       59.83000
N        104.35100        1.39600       55.23100
C        103.47100        1.11200       54.10800
C        102.99800       -0.33700       54.20500
O        103.79000       -1.24600       54.47200
C        104.22100        1.30600       52.78900
C        103.36600        1.08700       51.54700
C        102.37300        2.21200       51.31700
O        101.49100        2.05800       50.44700
O        102.47400        3.25200       52.00100
N        101.69500       -0.57200       54.01200
C        101.24900       -1.96400       54.09600
C        102.00600       -2.82900       53.08300
O        102.33000       -2.37900       51.98000
C         99.74100       -1.87700       53.82900
C         99.51900       -0.49200       53.25900
C        100.55800        0.35700       53.92000
N        102.30600       -4.06200       53.47600
C        103.03900       -4.99400       52.62800
C        102.08500       -6.01000       52.00200
O        101.32700       -6.67200       52.70900
C        104.09100       -5.71800       53.47100
C        105.24100       -6.54100       52.87500
C        105.07800       -7.98200       53.30300
C        105.30800       -6.40000       51.36700
N        102.12900       -6.12400       50.67800
C        101.27700       -7.06700       49.96100
C        102.09100       -8.28000       49.54500
O        103.07400       -8.16700       48.81400
C        100.66200       -6.43500       48.69400
C         99.75000       -5.26500       49.08500
C         99.88200       -7.50200       47.90700
C         99.30200       -4.41200       47.90800
N        101.67900       -9.44600       50.02000
C        102.37000      -10.67500       49.68600
C        101.63900      -11.35100       48.53700
O        100.44400      -11.64200       48.64300
C        102.42400      -11.61500       50.90300
C        103.27100      -10.96800       52.00600
C        102.98700      -12.97400       50.49300
C        103.31200      -11.75900       53.29900
N        102.35100      -11.56900       47.43200
C        101.77200      -12.21500       46.25800
C        102.04600      -13.70600       46.35200
O        103.16900      -14.15200       46.10500
C        102.40000      -11.67700       44.97400
S        102.05300       -9.94400       44.61500
N        101.02500      -14.47800       46.70800
C        101.20700      -15.91400       46.83900
C        100.99600      -16.70000       45.55700
O         99.86000      -16.95600       45.15000
C        100.28600      -16.48400       47.92100
C        100.50700      -17.97500       48.14800
C         99.70200      -18.52300       49.30700
O         98.95900      -17.74800       49.94700
O         99.81800      -19.73300       49.57900
N        102.09900      -17.08100       44.92100
C        102.02500      -17.88500       43.71400
C        101.58300      -19.26800       44.17600
O        100.85500      -19.96700       43.47800
C        103.39900      -17.97600       43.01400
C        103.73600      -16.62600       42.38500
C        103.39200      -19.07500       41.95600
C        102.67200      -16.11600       41.46200
N        102.02200      -19.64300       45.37400
C        101.66000      -20.93200       45.94100
C        101.78900      -22.09700       44.98000
O        102.86800      -22.35700       44.44700
N        100.69000      -22.81400       44.77100
C        100.68300      -23.95500       43.86400
C        100.13900      -23.57600       42.48900
O         99.91000      -24.44200       41.65800
C         99.82400      -25.13100       44.41800
C         98.38800      -24.65800       44.68300
C        100.46200      -25.69700       45.69100
C         97.40900      -25.80100       44.96700
N         99.94700      -22.28400       42.24300
C         99.41800      -21.83300       40.95800
C        100.24500      -22.24300       39.73200
O         99.71200      -22.32300       38.62900
C         99.23100      -20.31000       40.96700
C         98.05400      -19.87100       41.83300
O         97.33800      -20.70400       42.38800
N         97.84800      -18.55600       41.94400
N        101.53600      -22.50900       39.92000
C        102.41100      -22.89600       38.80500
C        102.20200      -24.34900       38.36000
O        102.82000      -24.81100       37.39300
C        103.87400      -22.68100       39.20200
C        104.27400      -23.44400       40.42300
N        104.95700      -22.86800       41.47200
C        104.04800      -24.73100       40.78100
C        105.13100      -23.76700       42.42300
N        104.58800      -24.90500       42.02900
N        101.33900      -25.06700       39.07600
C        101.03000      -26.46000       38.76100
C        102.25600      -27.34500       38.55300
O        102.26500      -28.22500       37.68500
C        100.11100      -26.52800       37.52900
C         98.64400      -26.22300       37.84700
C         97.92600      -27.40000       38.49200
O         96.97100      -27.18300       39.26700
O         98.30900      -28.55400       38.20800
N        103.28600      -27.10700       39.35800
C        104.49800      -27.90400       39.28700
C        105.48000      -27.58200       38.17900
O        106.49200      -28.26500       38.04700
N        105.19800      -26.55200       37.38700
C        106.07900      -26.17100       36.28700
C        106.93100      -24.96700       36.65400
O        106.40900      -23.91000       36.99800
C        105.26000      -25.84900       35.03200
O        106.06800      -25.25600       34.02800
N        108.24700      -25.12800       36.58100
C        109.14600      -24.03300       36.91000
C        108.96000      -22.91100       35.89200
O        109.01600      -21.73400       36.24100
C        110.59700      -24.52500       36.92100
C        111.62500      -23.62200       37.60100
C        111.19600      -23.34100       39.03600
C        112.99300      -24.29600       37.57400
N        108.73400      -23.28200       34.63500
C        108.51500      -22.30900       33.57000
C        107.30900      -21.42500       33.89800
O        107.36900      -20.20400       33.76000
C        108.28400      -23.03200       32.23900
C        107.84300      -22.13400       31.08600
C        107.46000      -22.96900       29.87100
C        106.75300      -22.14100       28.80500
N        107.62100      -21.05500       28.27700
N        106.21500      -22.04400       34.33400
C        105.01500      -21.29200       34.68400
C        105.30500      -20.42000       35.90200
O        104.86800      -19.27200       35.97000
C        103.84000      -22.24000       34.99400
O        103.58700      -23.05300       33.84400
C        102.57300      -21.45000       35.33900
N        106.05500      -20.96400       36.85700
C        106.40600      -20.21700       38.05900
C        107.18500      -18.95200       37.69100
O        106.93700      -17.88600       38.24500
C        107.22200      -21.09600       39.01100
N        108.11900      -19.06400       36.74800
C        108.89800      -17.89900       36.33200
C        108.02400      -16.87300       35.62200
O        108.21200      -15.67500       35.79000
C        110.05600      -18.30800       35.41000
C        111.17700      -19.02800       36.11300
C        111.17200      -19.18700       37.49400
C        112.24500      -19.54400       35.38700
C        112.20900      -19.85100       38.14200
C        113.28500      -20.20800       36.02300
C        113.27000      -20.36400       37.40300
N        107.07200      -17.33900       34.82100
C        106.17900      -16.42400       34.11800
C        105.33100      -15.66000       35.13900
O        105.03000      -14.48200       34.94200
C        105.29500      -17.19700       33.12600
C        106.11000      -17.97200       32.07600
C        105.25500      -18.83400       31.15400
O        104.26900      -19.42800       31.63500
O        105.57700      -18.93400       29.95000
N        104.96700      -16.31900       36.23700
C        104.17700      -15.66300       37.27800
C        105.05500      -14.70900       38.09600
O        104.59500      -13.65500       38.53600
C        103.51200      -16.71400       38.18300
C        102.50600      -17.58700       37.42400
S        101.62800      -18.81700       38.41000
C        100.34800      -19.32900       37.24400
N        106.31800      -15.07700       38.29700
C        107.24500      -14.21700       39.03100
C        107.48700      -12.97000       38.19100
O        107.58100      -11.86600       38.71900
C        108.59600      -14.92300       39.30700
C        109.62900      -13.91100       39.80000
C        108.40500      -16.01000       40.36600
N        107.58200      -13.14900       36.87900
C        107.78400      -12.01800       35.97800
C        106.59300      -11.07000       36.05800
O        106.75600       -9.85400       36.13700
C        107.96000      -12.51100       34.54000
C        109.30400      -13.18400       34.31500
O        109.46000      -13.88500       33.29300
O        110.20600      -12.99900       35.16000
N        105.38900      -11.62700       36.03500
C        104.18700      -10.80600       36.10600
C        104.12000      -10.02000       37.41700
O        103.70500       -8.86100       37.43100
C        102.93800      -11.68700       35.94200
N        104.52400      -10.65000       38.51700
C        104.50900       -9.99900       39.82600
C        105.50300       -8.84200       39.83300
O        105.19400       -7.73000       40.27500
C        104.88400      -11.00100       40.91200
N        106.70600       -9.12500       39.34300
C        107.76300       -8.12800       39.27500
C        107.32300       -6.90600       38.46800
O        107.43900       -5.77700       38.93100
C        109.01300       -8.73900       38.63700
C        110.09400       -7.72200       38.34000
C        110.74700       -7.04700       39.37200
C        110.43300       -7.40400       37.02600
C        111.70700       -6.07200       39.10100
C        111.38800       -6.43400       36.74300
C        112.01800       -5.76900       37.78600
O        112.93700       -4.78000       37.51000
N        106.81900       -7.13800       37.26000
C        106.38400       -6.04100       36.39800
C        105.20700       -5.26000       36.97200
O        104.99800       -4.10100       36.62300
C        106.02100       -6.56400       35.00200
C        107.21900       -7.13000       34.25800
O        108.30000       -6.54100       34.26400
N        107.02800       -8.27100       33.60000
N        104.43900       -5.89000       37.85500
C        103.29000       -5.22400       38.45000
C        103.70800       -4.39800       39.66200
O        102.91900       -3.62400       40.19800
C        102.23300       -6.25700       38.84400
N        104.95000       -4.57500       40.10100
C        105.44100       -3.82200       41.24000
C        105.40800       -4.53200       42.58100
O        105.45700       -3.88800       43.63200
N        105.33000       -5.85600       42.55900
C        105.29400       -6.62800       43.79200
C        106.62500       -6.52600       44.54100
O        107.68000       -6.35300       43.93300
C        104.98500       -8.08100       43.47600
N        106.56400       -6.63200       45.86300
C        107.75800       -6.57200       46.70000
C        108.09900       -7.96300       47.21600
O        109.26100       -8.27400       47.47200
C        107.52500       -5.67500       47.91500
C        107.33600       -4.19700       47.63100
C        107.10400       -3.42000       48.91200
O        105.93500       -3.11300       49.22900
O        108.09600       -3.13300       49.61600
N        107.06700       -8.78900       47.37500
C        107.22500      -10.13600       47.90300
C        106.43400      -11.18800       47.13700
O        105.27000      -10.98700       46.80500
C        106.76000      -10.20400       49.37900
C        106.90700      -11.62500       49.91000
C        107.55200       -9.22400       50.23200
N        107.08500      -12.31000       46.85500
C        106.44200      -13.43300       46.18500
C        106.50400      -14.56700       47.20100
O        107.57500      -14.85500       47.73300
C        107.21000      -13.86200       44.91000
C        106.75600      -15.25000       44.46900
C        106.96200      -12.85400       43.78700
N        105.36700      -15.19600       47.48800
C        105.34500      -16.29700       48.44100
C        105.02000      -17.61100       47.76300
O        104.05100      -17.73100       47.00900
C        104.33200      -16.05300       49.56200
C        104.42300      -17.10100       50.67100
C        103.33400      -16.93500       51.71300
C        101.96500      -17.17700       51.10800
N        100.87700      -17.01500       52.10800
N        105.84100      -18.60700       48.05600
C        105.69300      -19.93300       47.49500
C        105.08200      -20.81900       48.58300
O        104.77900      -20.34300       49.68300
C        107.09400      -20.42200       47.08900
C        107.12300      -21.76800       46.43400
N        106.34000      -22.09100       45.34700
C        107.88200      -22.86000       46.68800
C        106.61600      -23.32400       44.96000
N        107.54900      -23.81300       45.75700
N        104.85500      -22.08500       48.25300
C        104.35200      -23.06400       49.21100
C        105.33100      -24.22400       49.05400
O        105.57400      -24.68400       47.93900
C        102.92600      -23.52000       48.87600
C        101.85500      -22.46400       49.12000
C        100.44500      -23.03500       49.07200
O         99.45900      -22.29200       49.02900
N        100.34300      -24.35400       49.08600
N        105.90600      -24.67600       50.16300
C        106.88500      -25.75900       50.11900
C        106.24900      -27.08500       50.49700
O        105.92800      -27.32500       51.66300
C        108.06400      -25.46600       51.06900
O        108.63700      -24.20000       50.72700
C        109.13700      -26.54400       50.95100
N        106.06600      -27.94000       49.49700
C        105.45300      -29.23900       49.71100
C        106.38500      -30.43300       49.54100
O        106.98700      -30.63300       48.48400
C        104.25200      -29.41900       48.78100
C        103.08900      -28.53800       49.11500
N        102.85300      -27.33900       48.47800
C        102.10400      -28.67700       50.03200
C        101.77100      -26.77800       48.98800
N        101.29700      -27.57000       49.93300
N        106.48400      -31.21300       50.61200
C        107.26800      -32.44100       50.67400
C        106.19100      -33.40500       51.17000
O        106.03800      -33.63100       52.37000
C        108.41700      -32.30800       51.70100
C        109.36200      -31.18800       51.25100
C        109.17100      -33.62700       51.82600
C        110.50300      -30.89800       52.20600
N        105.43000      -33.94500       50.22100
C        104.29100      -34.81300       50.51100
C        104.46100      -35.91500       51.54700
O        103.58700      -36.10800       52.39400
C        103.72800      -35.41800       49.20500
C        103.18500      -34.29800       48.32000
C        104.81500      -36.18100       48.46000
N        105.57500      -36.63300       51.48800
C        105.82500      -37.71300       52.42900
C        105.89500      -37.25400       53.88900
O        105.43100      -37.96100       54.77800
C        107.11600      -38.45100       52.04900
C        108.25500      -37.52300       51.63100
C        108.04200      -36.91400       50.25000
O        108.73000      -35.93100       49.91500
O        107.19200      -37.42700       49.49400
N        106.46300      -36.07600       54.14300
C        106.57400      -35.59100       55.51700
C        105.39900      -34.70300       55.91300
O        105.20000      -34.39900       57.08800
C        107.87300      -34.80000       55.71000
C        108.29600      -34.73600       57.16800
O        108.78200      -33.67700       57.62600
O        108.14800      -35.76300       57.85800
N        104.61800      -34.29900       54.92100
C        103.47900      -33.41700       55.13600
C        102.17700      -34.15000       55.46800
O        101.32700      -33.64000       56.20700
C        103.32000      -32.55800       53.88200
C        102.06500      -31.75200       53.78500
C        102.05400      -30.92400       52.51900
O        100.96000      -30.51700       52.08600
O        103.15100      -30.67400       51.96800
N        102.00800      -35.34800       54.92800
C        100.78900      -36.08900       55.20400
C        100.96000      -37.60500       55.16200
O        101.87000      -38.12600       54.51100
C         99.66400      -35.61900       54.25000
C         99.91800      -35.77600       52.76100
S         99.01200      -34.56400       51.68100
C        100.42100      -33.90600       50.78600
N        100.10100      -38.30300       55.90100
C        100.12300      -39.76000       55.94800
C         99.20600      -40.29000       54.84300
O         98.51100      -39.51600       54.17700
C         99.64400      -40.25700       57.31500
O         98.30200      -39.86800       57.55600
N         99.19500      -41.60500       54.65700
C         98.38400      -42.22000       53.60500
C         96.90300      -41.86600       53.64600
O         96.22600      -41.91500       52.61700
C         98.55000      -43.74000       53.62900
C         99.98700      -44.16300       53.43400
O        100.65900      -43.57800       52.55700
O        100.43900      -45.08100       54.15000
N         96.40100      -41.51300       54.82600
C         94.99800      -41.14300       54.96200
C         94.63900      -39.95700       54.05800
O         93.49000      -39.81900       53.63400
C         94.66900      -40.78400       56.41900
C         94.45700      -41.97300       57.37300
C         95.74100      -42.70400       57.75100
O         96.85200      -42.21100       57.52600
O         95.59000      -43.88100       58.35200
N         95.62400      -39.11400       53.75700
C         95.39700      -37.93200       52.92400
C         95.07300      -38.27000       51.47100
O         94.61600      -37.40900       50.71600
C         96.60900      -37.01000       52.98000
N         95.32100      -39.51200       51.07500
C         95.03500      -39.92700       49.70600
C         93.55100      -40.24500       49.56500
O         93.07200      -40.50400       48.45900
C         95.85100      -41.17000       49.33200
C         97.35400      -40.95200       49.24900
C         98.09000      -42.26900       49.02700
C         99.60000      -42.04800       48.95700
N        100.34300      -43.33300       48.88900
N         92.83100      -40.22400       50.68600
C         91.40100      -40.52900       50.68600
C         90.50000      -39.33700       51.03000
O         89.28600      -39.50300       51.13700
C         91.09700      -41.65700       51.68300
C         92.11200      -42.79300       51.73100
C         92.26100      -43.50900       50.40900
O         91.27100      -43.91800       49.79200
N         93.50200      -43.67400       49.96400
N         91.07600      -38.15200       51.22100
C         90.28000      -36.97200       51.57400
C         90.34800      -35.86500       50.51900
O         91.42500      -35.46100       50.09100
C         90.70600      -36.39000       52.95500
C         90.44200      -37.41700       54.05800
C         92.17300      -36.00000       52.93400
N         89.17800      -35.37500       50.12200
C         89.06100      -34.34500       49.09400
C         88.82000      -32.94500       49.65900
O         87.96300      -32.74800       50.51500
C         87.89500      -34.67300       48.14500
C         88.06600      -36.08700       47.57800
C         87.81300      -33.62900       47.04100
C         86.83000      -36.61800       46.87700
N         89.58400      -31.95200       49.18900
C         89.37600      -30.59700       49.70200
C         88.09100      -29.99100       49.12600
O         87.56000      -30.47000       48.12100
C         90.63900      -29.86500       49.25800
C         91.01300      -30.56700       48.00400
C         90.77400      -32.01600       48.32600
N         87.59600      -28.94500       49.77600
C         86.37600      -28.29500       49.32900
C         86.40100      -27.74800       47.91300
O         85.37800      -27.77000       47.23300
N         87.55600      -27.25800       47.46200
C         87.67000      -26.69900       46.11700
C         88.27200      -27.64500       45.07700
O         88.77900      -27.19100       44.05500
C         88.49600      -25.40400       46.13700
C         89.91800      -25.61700       46.64000
O         90.81600      -24.80600       46.37900
N         90.12600      -26.70000       47.37700
N         88.22000      -28.95100       45.32200
C         88.77600      -29.90500       44.36400
C         87.89800      -31.13600       44.18500
O         86.87600      -31.27700       44.85100
C         90.16900      -30.32500       44.79500
N         88.31000      -32.02000       43.27600
C         87.57400      -33.24600       42.99500
C         88.43800      -34.48700       43.22200
O         87.96800      -35.61700       43.06300
C         87.05400      -33.24700       41.55200
C         86.23400      -32.00900       41.22200
O         86.79600      -31.05700       40.63300
O         85.02800      -31.98500       41.55900
N         89.70600      -34.27800       43.57100
C         90.61200      -35.39500       43.84800
C         91.23900      -35.19800       45.23000
O         91.06300      -34.14500       45.84700
C         91.72700      -35.51600       42.77800
C         91.10200      -35.61300       41.39700
C         92.68100      -34.33100       42.86100
N         91.97100      -36.19800       45.71500
C         92.57300      -36.11100       47.04600
C         93.60300      -34.99000       47.18200
O         94.28500      -34.62700       46.21500
C         93.22000      -37.44700       47.42700
O         94.46000      -37.63100       46.76700
N         93.70900      -34.44200       48.39100
C         94.66700      -33.37700       48.65000
C         96.06900      -33.90900       48.36400
O         96.94400      -33.17100       47.91900
C         94.57200      -32.87300       50.11900
C         95.60600      -31.76800       50.36700
C         94.79500      -34.02900       51.09500
C         95.39400      -30.51300       49.52900
N         96.27500      -35.20200       48.59600
C         97.57700      -35.80900       48.34600
C         97.93800      -35.72700       46.85700
O         99.08700      -35.45600       46.49900
C         97.58600      -37.27500       48.78700
C         98.98200      -37.84200       48.94700
C         99.57100      -37.94000       50.20600
C         99.72700      -38.24400       47.83600
C        100.86700      -38.42300       50.36100
C        101.02800      -38.72600       47.98100
C        101.58800      -38.81300       49.24800
O        102.86700      -39.29000       49.40500
N         96.95300      -35.95000       45.99200
C         97.19200      -35.91600       44.55100
C         97.49300      -34.50300       44.05100
O         98.32700      -34.30900       43.16400
C         95.98200      -36.47600       43.80100
C         96.24000      -36.74300       42.32600
C         95.00200      -37.22500       41.59600
O         94.30000      -38.11400       42.13200
O         94.73500      -36.71800       40.48300
N         96.80500      -33.51900       44.61900
C         97.00600      -32.12800       44.23100
C         98.41500      -31.66900       44.60200
O         99.14500      -31.11200       43.77300
C         95.97600      -31.20400       44.93000
C         94.55700      -31.61400       44.52600
C         96.22900      -29.74900       44.55800
C         93.46900      -30.78600       45.18700
N         98.79400      -31.91300       45.85100
C        100.10800      -31.51000       46.33300
C        101.24100      -32.21300       45.59500
O        102.25600      -31.59700       45.26600
C        100.21500      -31.76700       47.83800
C         99.29000      -30.88500       48.66000
S         99.43300      -29.13600       48.18900
C         97.76700      -28.76600       47.68500
N        101.05800      -33.49600       45.31500
C        102.07700      -34.25700       44.61000
C        102.23400      -33.72100       43.19000
O        103.34400      -33.65300       42.66000
C        101.70000      -35.74000       44.59300
C        102.71700      -36.64000       43.91500
C        102.50800      -38.10400       44.25400
O        103.30800      -38.65400       45.03800
O        101.53600      -38.70000       43.74600
N        101.12000      -33.31600       42.58900
C        101.12400      -32.78100       41.23200
C        101.76000      -31.38900       41.13000
O        102.43700      -31.08200       40.15000
C         99.68900      -32.71100       40.70100
C         99.54500      -32.01900       39.34700
C         98.35500      -31.06000       39.36500
N         97.13200      -31.73000       39.78700
C         96.04000      -31.11000       40.22200
N         94.98300      -31.82400       40.58100
N         96.00400      -29.78600       40.30600
N        101.54400      -30.55900       42.14700
C        102.05200      -29.18600       42.15400
C        103.38800      -28.96600       42.86100
O        104.01600      -27.91800       42.69500
C        101.00900      -28.25500       42.78800
S         99.42700      -28.16300       41.91900
N        103.82400      -29.94600       43.64400
C        105.07200      -29.83000       44.38800
C        106.32600      -29.63200       43.53500
O        106.49100      -30.25400       42.48900
C        105.24700      -31.05500       45.27900
N        107.20700      -28.75200       43.99700
C        108.47700      -28.48600       43.32600
C        109.53500      -29.19000       44.17300
O        109.48400      -29.11100       45.39900
C        108.76200      -26.98200       43.31600
C        108.64300      -26.15500       42.03200
C        107.45700      -26.58100       41.20000
C        108.54900      -24.68800       42.42500
N        110.48200      -29.88600       43.54700
C        111.51800      -30.55600       44.33500
C        112.47200      -29.49100       44.88100
O        112.36900      -28.32100       44.51000
C        112.26300      -31.60300       43.49000
C        112.90700      -31.01900       42.24300
O        112.91700      -31.65400       41.18700
N        113.46600      -29.82200       42.36200
N        113.38800      -29.88700       45.76000
C        114.32100      -28.94100       46.36300
C        115.12600      -28.14700       45.34200
O        115.30000      -26.93500       45.48500
C        115.28400      -29.66600       47.30500
C        116.10300      -28.72300       48.18100
C        117.05900      -29.46100       49.10400
O        117.66400      -28.81300       49.98300
O        117.20700      -30.69000       48.94700
N        115.62000      -28.84300       44.32400
C        116.41200      -28.23600       43.26000
C        115.67900      -27.07400       42.60200
O        116.21200      -25.96800       42.49200
C        116.73300      -29.28200       42.18700
C        117.51800      -28.74200       40.99700
C        117.11900      -29.39600       39.67900
O        117.84200      -29.19900       38.67300
O        116.07900      -30.09800       39.64500
N        114.45600      -27.33800       42.15200
C        113.66700      -26.31700       41.48500
C        113.27500      -25.17100       42.40200
O        113.26700      -24.01900       41.98000
C        112.42100      -26.93700       40.84400
C        112.76000      -27.83900       39.67200
O        113.89600      -27.73600       39.16200
O        111.89700      -28.63800       39.25000
N        112.96100      -25.47100       43.65700
C        112.57600      -24.41600       44.58100
C        113.74400      -23.47100       44.86100
O        113.54600      -22.27300       45.05300
C        112.04700      -25.00100       45.89000
C        111.42300      -23.94100       46.78500
C        110.54400      -24.51800       47.87500
O        109.85100      -23.72600       48.54900
O        110.54500      -25.75100       48.05900
N        114.96000      -24.01200       44.88900
C        116.14300      -23.18700       45.11100
C        116.28700      -22.25400       43.90900
O        116.64100      -21.08600       44.06400
C        117.42300      -24.05700       45.25700
C        117.45100      -24.70400       46.64300
C        118.67200      -23.21300       45.02700
C        118.63200      -25.64700       46.87600
N        115.99500      -22.77200       42.71800
C        116.08100      -21.97800       41.49200
C        115.02900      -20.88000       41.49000
O        115.25700      -19.78600       40.97000
C        115.85500      -22.84600       40.25200
C        116.99300      -23.77300       39.88100
C        116.68600      -24.44500       38.54800
C        117.72400      -25.49200       38.19200
N        117.40200      -26.14500       36.89700
N        113.86200      -21.19500       42.04600
C        112.76600      -20.24200       42.11500
C        113.13800      -19.09800       43.05700
O        112.89100      -17.93000       42.75600
C        111.49100      -20.94300       42.60200
C        110.23000      -20.08200       42.76800
C        109.87600      -19.41600       41.44600
C        109.07500      -20.95600       43.25400
N        113.74200      -19.43300       44.19200
C        114.14600      -18.41200       45.15400
C        115.17700      -17.47000       44.54300
O        115.06200      -16.25000       44.67800
C        114.71800      -19.05500       46.42000
C        115.42500      -18.07200       47.35800
C        115.99800      -18.79600       48.56800
C        117.22500      -18.09100       49.14000
N        116.90900      -16.83700       49.85500
N        116.18100      -18.03000       43.86900
C        117.21400      -17.20100       43.24900
C        116.59900      -16.31900       42.17600
O        116.96000      -15.15200       42.04300
C        118.31400      -18.06600       42.62100
C        119.58200      -17.28400       42.20600
C        119.54400      -16.70700       40.78100
O        120.50000      -15.97700       40.41400
O        118.58400      -16.98200       40.02300
N        115.66500      -16.88000       41.41500
C        115.00800      -16.13800       40.34400
C        114.25300      -14.93000       40.89800
O        114.38400      -13.81900       40.38300
C        114.05800      -17.06100       39.57000
C        113.53900      -16.45200       38.29000
C        112.31800      -15.78000       38.25600
C        114.29500      -16.50400       37.12000
C        111.86500      -15.17400       37.08900
C        113.85200      -15.89800       35.94900
C        112.63700      -15.23500       35.94100
O        112.20200      -14.62800       34.78600
N        113.46900      -15.14500       41.95200
C        112.71600      -14.05700       42.57400
C        113.66900      -12.98700       43.09600
O        113.44500      -11.79200       42.91400
C        111.85300      -14.57100       43.75100
C        111.37300      -13.40200       44.60000
C        110.65400      -15.34900       43.21200
N        114.74200      -13.41900       43.74400
C        115.70300      -12.47000       44.27300
C        116.44800      -11.74400       43.16100
O        116.78000      -10.56800       43.30200
C        116.66400      -13.18300       45.23200
C        115.95400      -13.60600       46.51900
C        116.81000      -14.44400       47.44400
O        116.32600      -14.76800       48.54800
O        117.95500      -14.78600       47.07400
N        116.68800      -12.42400       42.04500
C        117.38000      -11.78900       40.92400
C        116.53500      -10.63500       40.38500
O        117.04300       -9.75800       39.68200
C        117.62900      -12.79300       39.79600
O        116.44500      -13.04800       39.05900
N        115.24300      -10.64600       40.71100
C        114.33300       -9.59900       40.26300
C        114.18400       -8.50900       41.31300
O        113.35100       -7.61200       41.17900
C        112.95500      -10.18300       39.93000
C        112.95800      -11.16500       38.76500
C        113.60700      -10.56000       37.52400
C        113.66100      -11.56300       36.37900
N        114.46700      -11.05900       35.22500
N        114.99400       -8.59300       42.36100
C        114.94900       -7.59600       43.41300
C        113.79000       -7.74300       44.37800
O        113.49300       -6.82000       45.13600
N        113.13100       -8.89600       44.35900
C        112.00500       -9.12900       45.25400
C        112.36800      -10.07300       46.38200
O        113.34900      -10.81800       46.30500
C        110.80800       -9.70000       44.48600
C        110.27600       -8.78400       43.39700
S        108.75300       -9.42000       42.66700
C        109.39700      -10.79400       41.72500
N        111.56600      -10.03300       47.43600
C        111.77600      -10.88800       48.58700
C        111.05900      -12.21300       48.37400
O        109.91500      -12.24300       47.91200
C        111.23000      -10.23300       49.87000
C        112.04800       -8.98200       50.20300
C        111.26300      -11.22700       51.01500
C        111.40800       -8.10100       51.25100
N        111.74200      -13.30700       48.70200
C        111.16000      -14.63300       48.57400
C        110.93900      -15.25700       49.94300
O        111.84200      -15.29000       50.78200
C        112.06900      -15.57200       47.77100
C        111.60100      -17.01400       47.76900
C        110.77600      -17.49100       46.75800
C        111.97100      -17.88500       48.79700
C        110.32100      -18.81800       46.76300
C        111.52200      -19.21500       48.81300
C        110.69400      -19.68000       47.78900
N        109.72600      -15.74100       50.16200
C        109.38200      -16.43300       51.39100
C        108.48600      -17.57000       50.93800
O        108.05600      -17.60200       49.78600
C        108.62600      -15.54000       52.39700
C        107.39700      -14.91600       51.73500
C        109.56500      -14.47200       52.94700
C        106.49600      -14.17900       52.70900
N        108.21800      -18.51700       51.82200
C        107.37400      -19.63000       51.44200
C        106.67900      -20.22200       52.64900
O        107.18200      -20.14800       53.76800
C        108.20600      -20.70800       50.74700
O        107.37000      -21.73000       50.24200
N        105.51300      -20.80400       52.41500
C        104.75000      -21.42500       53.48400
C        105.16400      -22.88500       53.60600
O        105.13100      -23.62400       52.61900
C        103.24200      -21.38500       53.18200
O        102.83600      -20.03100       52.94000
C        102.45000      -21.95900       54.35000
N        105.60900      -23.30800       54.80400
C        106.00800      -24.70300       54.99600
C        104.79300      -25.46800       55.49900
O        104.00600      -24.93800       56.27700
C        107.09500      -24.60800       56.06200
C        106.58600      -23.51700       56.93000
C        106.15200      -22.47500       55.89000
N        104.62500      -26.70300       55.04800
C        103.49300      -27.50000       55.49900
C        103.98000      -28.73300       56.23600
O        103.20300      -29.64000       56.52800
C        102.61900      -27.91700       54.31600
C        101.88800      -26.77300       53.67200
C        102.53200      -25.93700       52.77000
C        100.55800      -26.51300       53.99800
C        101.86700      -24.85200       52.19600
C         99.88100      -25.42900       53.43100
C        100.53900      -24.59700       52.52800
N        105.27400      -28.76000       56.54100
C        105.85500      -29.90100       57.23700
C        107.22300      -29.59600       57.83000
O        107.83400      -28.56100       57.54700
C        105.99200      -31.07800       56.27600
O        106.88100      -30.76000       55.21700
N        107.69200      -30.51800       58.65900
C        108.99000      -30.40400       59.29700
C        110.08100      -30.35400       58.22900
O        110.97600      -29.51200       58.28300
C        109.20000      -31.61100       60.20800
C        110.62500      -31.84100       60.66600
C        110.69200      -33.13800       61.45300
N        110.15300      -34.26500       60.68900
C        109.91500      -35.47100       61.20100
N        110.16400      -35.70800       62.48000
N        109.43200      -36.44300       60.43500
N        109.99600      -31.26000       57.25800
C        110.97700      -31.33200       56.17800
C        111.00900      -30.04000       55.36100
O        112.07000      -29.60400       54.90600
C        110.66600      -32.52200       55.27000
N        109.84200      -29.43100       55.18000
C        109.73400      -28.18800       54.42600
C        110.45500      -27.07300       55.16800
O        111.20500      -26.30200       54.57000
C        108.26500      -27.81800       54.22900
N        110.21900      -26.99900       56.47600
C        110.83700      -25.98700       57.32300
C        112.36000      -26.09900       57.30200
O        113.06800      -25.09500       57.25200
C        110.32200      -26.12600       58.75400
N        112.86000      -27.32700       57.34100
C        114.29900      -27.54800       57.32600
C        114.90400      -27.16300       55.97800
O        116.03100      -26.66400       55.91800
C        114.60500      -29.01000       57.65700
C        114.22500      -29.42000       59.08400
C        114.49800      -30.90400       59.28800
C        115.02800      -28.59000       60.08300
N        114.15700      -27.38400       54.89800
C        114.64100      -27.03100       53.56600
C        114.73500      -25.51200       53.45000
O        115.70500      -24.97700       52.90700
C        113.70000      -27.56100       52.47200
C        114.07700      -27.08000       51.06700
C        113.03300      -27.43300       50.01800
N        112.89100      -28.87100       49.81100
C        112.02300      -29.41500       48.96500
N        111.95500      -30.73500       48.83200
N        111.21700      -28.63500       48.25000
N        113.72600      -24.81800       53.96700
C        113.70500      -23.36300       53.90900
C        114.79400      -22.74500       54.78400
O        115.33200      -21.68500       54.45800
C        112.32400      -22.84000       54.31900
C        111.17600      -23.18700       53.36100
C        109.84100      -22.82500       53.99700
C        111.36800      -22.45100       52.04600
N        115.12400      -23.40700       55.89100
C        116.16900      -22.90300       56.77600
C        117.51700      -22.96600       56.05300
O        118.34300      -22.06500       56.18500
C        116.22200      -23.71900       58.06700
C        117.31400      -23.26600       59.03300
C        117.29300      -24.03200       60.34100
O        117.08700      -25.24700       60.35700
N        117.52000      -23.32800       61.44500
N        117.73200      -24.03000       55.28500
C        118.97000      -24.18200       54.52500
C        119.04300      -23.09400       53.45600
O        120.11600      -22.56800       53.16400
C        119.03000      -25.56300       53.86400
C        119.83400      -26.59400       54.64400
C        119.02700      -27.84600       54.90300
N        118.46000      -28.40900       53.67900
C        117.53200      -29.36000       53.66500
N        117.06000      -29.81900       52.51400
N        117.07600      -29.85100       54.80900
N        117.89300      -22.76900       52.86700
C        117.81000      -21.72400       51.84900
C        117.96700      -20.35500       52.51100
O        118.24100      -19.35200       51.84700
C        116.46700      -21.81400       51.11500
C        116.36000      -23.01900       50.18900
S        114.67600      -23.35100       49.61000
C        114.43000      -21.98800       48.49900
N        117.78200      -20.32400       53.82800
C        117.92700      -19.09900       54.61000
C        116.95800      -17.97900       54.22800
O        117.38900      -16.87100       53.90300
C        119.36300      -18.57100       54.48700
C        119.67200      -17.47500       55.49100
O        120.65000      -16.72900       55.27900
O        118.94200      -17.36200       56.49900
N        115.65700      -18.25100       54.26800
C        114.68800      -17.21500       53.93200
C        114.60100      -16.22100       55.08900
O        114.83400      -16.58000       56.24200
C        113.29000      -17.81300       53.62900
C        112.78700      -18.62800       54.82000
C        113.37000      -18.69000       52.38200
C        111.36800      -19.14100       54.64200
N        114.26800      -14.95400       54.79200
C        114.15500      -13.87900       55.78400
C        112.98700      -13.95500       56.76300
O        113.00000      -13.28200       57.79200
C        114.10300      -12.62300       54.91600
C        113.35800      -13.09500       53.71600
C        114.00900      -14.43600       53.43600
N        111.97900      -14.75900       56.44800
C        110.81800      -14.89900       57.32800
C        110.03600      -16.15800       56.97200
O        110.07200      -16.61100       55.82800
C        109.92600      -13.67200       57.21100
N        109.33300      -16.72700       57.94800
C        108.56400      -17.94600       57.71200
C        107.06100      -17.75500       57.86200
O        106.58400      -17.23500       58.87400
C        109.00800      -19.06400       58.66600
C        110.44000      -19.51700       58.47900
C        111.50500      -18.74200       58.93600
C        110.73000      -20.70800       57.81800
C        112.82600      -19.14400       58.73500
C        112.04100      -21.11600       57.61100
C        113.08300      -20.33100       58.07100
O        114.37900      -20.72800       57.85300
N        106.31700      -18.19300       56.85400
C        104.86300      -18.09800       56.88500
C        104.28600      -19.43800       57.33000
O        104.70700      -20.48800       56.85800
C        104.31500      -17.74200       55.49300
C        102.78600      -17.75800       55.38600
C        102.15200      -16.62200       56.17200
C        100.70700      -16.92700       56.54600
N         99.78700      -17.10500       55.38200
N        103.33800      -19.40200       58.25700
C        102.68300      -20.61700       58.72200
C        101.19800      -20.44500       58.40700
O        100.56200      -19.51200       58.88700
C        102.89100      -20.82700       60.23200
C        104.39100      -20.98700       60.52000
C        102.11500      -22.05000       60.70200
C        104.71600      -21.28100       61.96600
N        100.66600      -21.33900       57.57900
C         99.27300      -21.26500       57.16900
C         98.25600      -21.60900       58.23500
O         98.59100      -22.17300       59.27100
N         96.99600      -21.27700       57.97300
C         95.93700      -21.53900       58.93700
C         95.80200      -23.01300       59.29900
O         95.33500      -23.35000       60.38700
C         94.61200      -20.99100       58.41000
O         94.70400      -19.58300       58.28500
N         96.21600      -23.89100       58.39200
C         96.13100      -25.31100       58.66700
C         97.10500      -25.74600       59.74700
O         96.83300      -26.68700       60.49800
N         98.24000      -25.06000       59.82800
C         99.26700      -25.38400       60.81400
C         99.30800      -24.43000       62.01400
O        100.24200      -24.48200       62.81900
C        100.64500      -25.41300       60.13700
C        100.83500      -26.56300       59.14500
C         99.80900      -26.55400       58.02400
O         99.07500      -27.55200       57.88900
O         99.73200      -25.55100       57.27700
N         98.30500      -23.56300       62.13400
C         98.24900      -22.60900       63.24400
C         98.15500      -23.35600       64.57400
O         98.58500      -22.84700       65.61000
C         97.04200      -21.67400       63.08900
S         96.89500      -20.35100       64.33800
N         97.59800      -24.56600       64.54200
C         97.46100      -25.35100       65.76300
C         98.44900      -26.51300       65.83200
O         98.35600      -27.37100       66.71200
C         96.01500      -25.85300       65.92300
C         95.60800      -26.86000       64.85800
O         94.47200      -27.33200       64.84900
N         96.52700      -27.19600       63.96300
N         99.40000      -26.53400       64.90500
C        100.41900      -27.57900       64.88400
C        101.57200      -27.05300       65.73700
O        102.57700      -26.57300       65.22000
C        100.87700      -27.84200       63.44200
C        101.81700      -29.03100       63.33200
O        102.02400      -29.57000       62.24700
N        102.39600      -29.43800       64.45300
N        101.40300      -27.15000       67.05300
C        102.38100      -26.65500       68.01600
C        103.78500      -27.22600       67.89200
O        104.76900      -26.49100       68.00200
C        101.83700      -26.85700       69.42900
C        100.45800      -26.26200       69.59200
C        100.20100      -24.94200       69.21200
C         99.39900      -27.02300       70.08500
C         98.92400      -24.39800       69.31300
C         98.11600      -26.48600       70.19200
C         97.88600      -25.17500       69.80300
O         96.61900      -24.64600       69.89200
N        103.90800      -28.54600       67.68300
C        105.26400      -29.08500       67.55600
C        105.99700      -28.48300       66.35400
O        107.18600      -28.17700       66.43600
C        105.03300      -30.59400       67.42500
C        103.61600      -30.70300       66.93600
C        102.91000      -29.62800       67.70300
N        105.28600      -28.29900       65.24300
C        105.90300      -27.72000       64.04800
C        106.26800      -26.25200       64.28500
O        107.31800      -25.77700       63.84300
C        104.95600      -27.83900       62.85000
C        105.44600      -27.27100       61.51700
C        106.76500      -27.92300       61.12400
C        104.39200      -27.52200       60.45400
N        105.40000      -25.53600       64.98900
C        105.65100      -24.13100       65.28600
C        106.88100      -23.98300       66.18700
O        107.65500      -23.03700       66.03300
C        104.41900      -23.47300       65.94800
C        103.27300      -23.40600       64.93300
C        104.76900      -22.06800       66.43700
C        101.96500      -22.89900       65.49200
N        107.06400      -24.91500       67.12100
C        108.23000      -24.86900       68.00200
C        109.49500      -25.00600       67.15800
O        110.48800      -24.31900       67.39100
C        108.18600      -26.00000       69.03300
C        107.20900      -25.78200       70.18000
C        107.32700      -26.90000       71.20900
C        106.44800      -26.65200       72.43300
N        104.99200      -26.67300       72.10900
N        109.45300      -25.89700       66.17400
C        110.59900      -26.10900       65.29600
C        110.95000      -24.84500       64.51400
O        112.10400      -24.40600       64.51300
C        110.31900      -27.25100       64.31800
C        111.40100      -27.53400       63.26800
C        112.70400      -27.93500       63.95200
C        110.93000      -28.63600       62.34000
N        109.95600      -24.25600       63.85300
C        110.17700      -23.04600       63.06100
C        110.65300      -21.85100       63.89500
O        111.53200      -21.10100       63.46900
C        108.89200      -22.63100       62.29700
C        109.11900      -21.32200       61.56500
C        108.50300      -23.72100       61.30700
N        110.07500      -21.66900       65.07800
C        110.46300      -20.54900       65.93100
C        111.92500      -20.63800       66.36500
O        112.58100      -19.62000       66.57700
C        109.56000      -20.48600       67.15100
N        112.44200      -21.85600       66.48300
C        113.82700      -22.03900       66.89900
C        114.81100      -21.65500       65.79500
O        116.02500      -21.76700       65.97500
C        114.06900      -23.49100       67.32100
O        114.02400      -24.36200       66.20600
N        114.29100      -21.20200       64.65500
C        115.14900      -20.80400       63.53900
C        115.70300      -19.39400       63.71500
O        116.72800      -19.04700       63.13000
C        114.38500      -20.89800       62.21200
C        114.09300      -22.31000       61.77300
C        113.22400      -22.55300       60.71100
C        114.68600      -23.39400       62.41300
C        112.95000      -23.85500       60.29400
C        114.42000      -24.70200       62.00500
C        113.55100      -24.93200       60.94300
N        115.01800      -18.57600       64.50600
C        115.49700      -17.22400       64.74500
C        115.03500      -16.14000       63.78900
O        115.56600      -15.02600       63.80900
N        114.05600      -16.44800       62.94800
C        113.54800      -15.46000       62.00200
C        112.11300      -15.10100       62.36900
O        111.42200      -15.86600       63.05300
C        113.58400      -16.02100       60.57700
C        114.97200      -16.38600       60.06800
C        115.81500      -15.15300       59.77400
C        117.17500      -15.55300       59.20600
N        117.96800      -14.38100       58.73000
N        111.64700      -13.92100       61.93800
C        110.27100      -13.55400       62.27000
C        109.27600      -14.53000       61.63900
O        109.55600      -15.15500       60.61300
C        110.14900      -12.12100       61.73800
C        111.20200      -12.04000       60.67600
C        112.34600      -12.81500       61.26300
N        108.12200      -14.67000       62.27500
C        107.09000      -15.57600       61.80500
C        105.80800      -14.82200       61.46600
O        105.42300      -13.87800       62.16000
C        106.78100      -16.63900       62.89000
C        107.99900      -17.55200       63.08300
C        105.54300      -17.43500       62.51600
C        107.84100      -18.56500       64.21000
N        105.16600      -15.23600       60.37800
C        103.90300      -14.64900       59.94700
C        102.91100      -15.79900       60.05700
O        102.99100      -16.77400       59.31700
C        103.96400      -14.16800       58.48800
C        105.11100      -13.16700       58.32000
C        102.63900      -13.50500       58.10400
C        105.37100      -12.79100       56.87800
N        101.97000      -15.67600       60.97800
C        101.00800      -16.73700       61.22300
C         99.57200      -16.40400       60.85700
O         99.00800      -15.42900       61.36100
C        101.07200      -17.12400       62.70000
C        100.08500      -18.16300       63.24100
C        100.36300      -19.52000       62.61600
C        100.23100      -18.24500       64.76300
N         98.98600      -17.21000       59.97500
C         97.59200      -17.02200       59.59100
C         96.81200      -17.73600       60.67600
O         97.26300      -18.75900       61.19200
C         97.30000      -17.63400       58.21500
O         97.78200      -16.78700       57.18100
N         95.64400      -17.20600       61.02000
C         94.85000      -17.77300       62.10000
C         93.44500      -18.24500       61.74400
O         92.57400      -18.31900       62.61400
C         94.74300      -16.76000       63.25100
O         94.06400      -15.58700       62.78900
C         96.13200      -16.35900       63.73900
N         93.21800      -18.56400       60.47500
C         91.90500      -19.04400       60.08600
C         91.63800      -20.37500       60.76400
O         92.57500      -21.05700       61.17700
N         90.36600      -20.73200       60.90500
C         89.96600      -21.99900       61.51700
C         90.42900      -22.19000       62.96200
O         90.37000      -23.30500       63.48900
C         90.49000      -23.16300       60.67300
C         90.19300      -23.03200       59.18900
S         90.79700      -24.43000       58.22900
C         92.51300      -23.94400       57.93200
N         90.87600      -21.11300       63.60400
C         91.36100      -21.19300       64.98200
C         90.82800      -20.10700       65.91800
O         90.77000      -18.92900       65.56100
C         92.89100      -21.15400       64.98800
C         93.50700      -22.50000       64.68000
O         93.59500      -23.36400       65.55200
N         93.92200      -22.69400       63.43500
N         90.45500      -20.51800       67.12800
C         89.93400      -19.60000       68.13800
C         91.08100      -18.85700       68.81400
O         92.23700      -19.27500       68.73100
C         89.16300      -20.37300       69.20500
O         90.04900      -21.18100       69.96700
N         90.75400      -17.76300       69.49700
C         91.76400      -16.98200       70.20300
C         92.54700      -17.87600       71.17100
O         93.77400      -17.80900       71.22600
C         91.12600      -15.82600       71.01200
C         90.40900      -14.84900       70.07100
C         92.19900      -15.09400       71.80800
C         91.33300      -14.08800       69.13900
N         91.84400      -18.72500       71.91600
C         92.51100      -19.59900       72.88200
C         93.49800      -20.57800       72.25600
O         94.57400      -20.80200       72.80300
C         91.48900      -20.37200       73.72600
C         90.60300      -21.33000       72.95300
C         89.66700      -22.11500       73.86000
O         88.81100      -22.86000       73.33300
O         89.79000      -21.99100       75.09900
N         93.14700      -21.16500       71.11800
C         94.06100      -22.10400       70.48200
C         95.26700      -21.34700       69.93800
O         96.37900      -21.86800       69.91000
C         93.36100      -22.86900       69.35200
O         93.01100      -22.01400       68.27800
N         95.04100      -20.10400       69.52600
C         96.10300      -19.26900       68.98200
C         97.11000      -18.86000       70.05900
O         98.31000      -18.79800       69.80100
C         95.50900      -18.00300       68.31600
C         94.61900      -18.41000       67.13700
C         96.62700      -17.07900       67.84100
C         93.82600      -17.26600       66.53300
N         96.62200      -18.59900       71.26700
C         97.49300      -18.19000       72.36900
C         98.61700      -19.19000       72.65600
O         99.69100      -18.80500       73.12600
C         96.66900      -17.96400       73.64200
C         97.47300      -17.39600       74.80900
C         98.16200      -16.08500       74.42200
C         98.95900      -15.47800       75.57300
N         98.08400      -15.01400       76.68400
N         98.37200      -20.46900       72.37700
C         99.37500      -21.50100       72.60900
C        100.51000      -21.35400       71.60300
O        101.67700      -21.57100       71.93000
C         98.75400      -22.89600       72.48800
C         97.50300      -23.09100       73.32800
C         97.76000      -22.78000       74.79500
C         96.46000      -22.75000       75.59300
N         95.54100      -21.66000       75.14200
N        100.16500      -20.97800       70.37500
C        101.17300      -20.79700       69.34100
C        101.99000      -19.54100       69.62500
O        103.21400      -19.55000       69.49700
C        100.51100      -20.68800       67.96500
O         99.79300      -21.87000       67.65300
N        101.31100      -18.46600       70.01700
C        101.98500      -17.20300       70.31800
C        102.94200      -17.35100       71.50400
O        104.02500      -16.76300       71.51900
C        100.96200      -16.08400       70.62900
C        101.68000      -14.84600       71.16800
C        100.18200      -15.72500       69.36300
N        102.54100      -18.13900       72.49400
C        103.37900      -18.35700       73.66600
C        104.68700      -19.00100       73.20900
O        105.77100      -18.62100       73.65200
C        102.66000      -19.26900       74.66400
C        103.02700      -19.00400       76.11600
C        104.51600      -19.14600       76.38100
O        105.03300      -20.28100       76.27600
O        105.16700      -18.12000       76.69100
N        104.57700      -19.97300       72.30900
C        105.74800      -20.66500       71.78300
C        106.64800      -19.69000       71.02600
O        107.87300      -19.72400       71.16400
C        105.32200      -21.82400       70.84700
C        104.59600      -22.89400       71.66600
C        106.53500      -22.42100       70.14900
C        104.05600      -24.04800       70.84800
N        106.03300      -18.81100       70.24000
C        106.77200      -17.82000       69.46500
C        107.52500      -16.83100       70.36400
O        108.69000      -16.51100       70.11000
C        105.82000      -17.05000       68.52300
C        105.26000      -18.01500       67.47000
C        106.55400      -15.89300       67.86400
C        104.24600      -17.40000       66.52900
N        106.85600      -16.34100       71.40300
C        107.48400      -15.40800       72.33800
C        108.65300      -16.09400       73.03800
O        109.74300      -15.53500       73.15000
C        106.47000      -14.94000       73.38200
C        105.46400      -13.93000       72.86100
C        104.31600      -13.75100       73.83800
N        103.38000      -12.71700       73.40700
C        102.11000      -12.65400       73.79800
N        101.32400      -11.68200       73.36000
N        101.62300      -13.57400       74.61900
N        108.40700      -17.31100       73.51000
C        109.42100      -18.10600       74.19100
C        110.69700      -18.16000       73.35900
O        111.80300      -18.09900       73.89600
C        108.89900      -19.52700       74.41100
C        109.81900      -20.43500       75.20600
C        109.90100      -20.04500       76.67000
O        108.83500      -19.87700       77.30500
O        111.03200      -19.91700       77.18800
N        110.53900      -18.27000       72.04300
C        111.68300      -18.34100       71.14200
C        112.34500      -16.98000       70.96900
O        113.50400      -16.89500       70.57300
C        111.25300      -18.89500       69.78800
N        111.60000      -15.91700       71.25000
C        112.15500      -14.57800       71.14300
C        112.16700      -13.92600       69.77100
O        112.91100      -12.97000       69.55200
N        111.35200      -14.42600       68.84600
C        111.29600      -13.85000       67.50400
C        110.03400      -13.01300       67.32800
O        108.99000      -13.31300       67.90900
C        111.29800      -14.94400       66.40900
C        112.51600      -15.84700       66.57300
C        110.00200      -15.74200       66.47000
N        110.11700      -11.94300       66.52500
C        108.95400      -11.08600       66.29400
C        107.95500      -11.84300       65.42000
O        108.33600      -12.75700       64.68700
C        109.56100       -9.87900       65.59400
C        110.65000      -10.50000       64.78000
C        111.28100      -11.47200       65.75300
N        106.68300      -11.47400       65.49200
C        105.68500      -12.17500       64.69800
C        104.50800      -11.31200       64.28300
O        104.28000      -10.22500       64.82600
C        105.14600      -13.37700       65.47400
C        104.22100      -12.99300       66.60700
C        104.70400      -12.32600       67.73300
C        102.85300      -13.26600       66.53800
C        103.84700      -11.93700       68.76100
C        101.98800      -12.88200       67.55700
C        102.49100      -12.21600       68.66600
O        101.63900      -11.81800       69.67300
N        103.75900      -11.83400       63.31600
C        102.56600      -11.18700       62.79500
C        101.44200      -12.20800       62.82200
O        101.67200      -13.40800       62.64800
C        102.79900      -10.70800       61.36400
N        100.22800      -11.72200       63.04500
C         99.04200      -12.56300       63.08600
C         98.09300      -12.08100       61.99600
O         97.61900      -10.94200       62.03300
C         98.36300      -12.44300       64.45300
C         98.49800      -13.58900       65.46100
C         99.83000      -14.31500       65.31500
C         98.31900      -13.01400       66.86000
N         97.82500      -12.93700       61.01800
C         96.92400      -12.56200       59.93300
C         95.54500      -13.17400       60.14900
O         95.42700      -14.38500       60.32400
C         97.46900      -13.05100       58.58400
C         98.94100      -12.79200       58.25400
C         99.22600      -13.18900       56.79900
C         99.25600      -11.32000       58.48800
N         94.50500      -12.34800       60.16300
C         93.16000      -12.89600       60.29500
C         92.93500      -13.57400       58.94400
O         93.52400      -13.16300       57.94200
C         92.12100      -11.80100       60.49200
C         90.72300      -12.32200       60.58900
N         89.64100      -11.66200       60.04800
C         90.23300      -13.45500       61.14500
C         88.54500      -12.36800       60.26200
N         88.87600      -13.46100       60.92500
N         92.08500      -14.59400       58.90400
C         91.86100      -15.32100       57.66000
C         90.61200      -16.19200       57.72400
O         90.13700      -16.54600       58.80700
C         93.09600      -16.19200       57.37600
S         92.99900      -17.36800       55.99800
N         90.06800      -16.49700       56.55200
C         88.91200      -17.37100       56.41600
C         89.36500      -18.27400       55.28300
O         89.59100      -17.81800       54.16000
C         87.63900      -16.60300       56.02100
O         87.28500      -15.69700       57.07600
C         86.48700      -17.56900       55.78800
N         89.51000      -19.55700       55.58500
C         90.02200      -20.49600       54.60300
C         89.00300      -21.26600       53.77000
O         88.72200      -22.43300       54.02900
C         90.99000      -21.45700       55.30200
C         92.21700      -21.74100       54.47200
O         92.18100      -22.55400       53.55400
N         93.31400      -21.05400       54.78000
N         88.46500      -20.59000       52.75800
C         87.49600      -21.17500       51.83600
C         87.79700      -20.59700       50.46000
O         87.87600      -19.37600       50.30200
C         86.05200      -20.79500       52.19900
C         85.76700      -21.13500       53.66300
C         85.08500      -21.53900       51.29000
C         84.41400      -20.63900       54.15300
N         87.97400      -21.46300       49.46700
C         88.27400      -21.00200       48.11400
C         87.05900      -21.13500       47.20400
O         86.77400      -22.22000       46.71100
C         89.41900      -21.81300       47.50000
C         90.75100      -21.74000       48.21600
C         90.90100      -22.22800       49.51400
C         91.88300      -21.24100       47.56400
C         92.14800      -22.23100       50.14600
C         93.13400      -21.23700       48.18800
C         93.25900      -21.73600       49.47500
O         94.49500      -21.75600       50.08300
N         86.33800      -20.03200       46.94700
C         86.56400      -18.67000       47.43800
C         85.76100      -18.37900       48.70400
O         84.97600      -19.21100       49.15200
C         86.11600      -17.81500       46.26200
C         84.92900      -18.58700       45.76000
C         85.40600      -20.02400       45.80300
N         85.95600      -17.19200       49.26700
C         85.25500      -16.79000       50.48600
C         84.21200      -15.70000       50.23200
O         84.51500      -14.67100       49.63700
C         86.25900      -16.25900       51.54000
O         87.17500      -17.30300       51.88800
C         85.53700      -15.78500       52.78700
N         82.96100      -15.91900       50.67400
C         81.93900      -14.88900       50.45500
C         82.20500      -13.71500       51.39400
O         82.80900      -13.88600       52.45600
C         80.63900      -15.61100       50.79100
C         81.05900      -16.58400       51.83600
C         82.37800      -17.11700       51.29900
N         81.75900      -12.52700       51.00200
C         81.96200      -11.33700       51.81900
C         81.49400      -11.50200       53.26300
O         82.17600      -11.08100       54.20300
C         81.21600      -10.14400       51.22400
C         81.59700       -9.76200       49.80900
C         82.93400       -9.60900       49.43100
C         80.61000       -9.46900       48.87200
C         83.27400       -9.16300       48.14800
C         80.93500       -9.02500       47.59500
C         82.26300       -8.87000       47.23900
O         82.56000       -8.39200       45.98300
N         80.31900      -12.10000       53.43000
C         79.71400      -12.28900       54.74700
C         80.51400      -13.10200       55.75800
O         80.30800      -12.95600       56.95900
C         78.32500      -12.91900       54.59700
C         78.30400      -14.16800       53.73300
C         76.92800      -14.79800       53.65100
O         75.93100      -14.05100       53.53100
O         76.84000      -16.04400       53.69800
N         81.41800      -13.95300       55.28500
C         82.21300      -14.78300       56.19100
C         83.54500      -14.14500       56.56900
O         84.28100      -14.68800       57.38900
C         82.48700      -16.14800       55.55300
C         81.22200      -16.96500       55.34100
O         81.26700      -17.91400       54.53400
O         80.19200      -16.67100       55.98400
N         83.85300      -12.99300       55.98000
C         85.12500      -12.32300       56.25300
C         85.33200      -11.85100       57.68900
O         86.40000      -12.06200       58.25900
C         85.34000      -11.13200       55.29300
C         86.61900      -10.38400       55.66100
C         85.42900      -11.64100       53.86200
N         84.33000      -11.19600       58.26500
C         84.42200      -10.71700       59.64400
C         85.69800       -9.90500       59.91000
O         86.54300      -10.32600       60.69100
C         84.39300      -11.91200       60.61300
C         83.18000      -12.83400       60.48700
C         83.48900      -14.21500       61.08400
N         84.47900      -14.91100       60.26600
C         85.55400      -15.53800       60.73400
N         86.38500      -16.13100       59.88800
N         85.80500      -15.57300       62.03800
N         85.83900       -8.74200       59.28000
C         87.03700       -7.92400       59.49100
C         87.28000       -7.62000       60.97300
O         88.41300       -7.36200       61.38800
C         86.93900       -6.62200       58.68200
C         87.04400       -6.80100       57.15800
C         86.78700       -5.46800       56.45500
C         88.42600       -7.33400       56.79000
N         86.21400       -7.66000       61.76800
C         86.33700       -7.41700       63.19500
C         87.31400       -8.37300       63.86000
O         87.84400       -8.08300       64.93800
N         87.55800       -9.51400       63.22000
C         88.48900      -10.48500       63.76400
C         89.87900       -9.90700       63.96500
O         90.63000      -10.34300       64.83800
N         90.23900       -8.92500       63.14700
C         91.55000       -8.30100       63.26700
C         91.67600       -7.57500       64.60500
O         92.72700       -7.61700       65.25100
C         91.77000       -7.32400       62.10800
C         91.94300       -8.00800       60.75900
S         91.98500       -6.83500       59.39500
C         93.61400       -6.18600       59.56900
N         90.60100       -6.91100       65.01600
C         90.58000       -6.18600       66.28200
C         90.72100       -7.17500       67.43500
O         91.51700       -6.97000       68.35900
C         89.26600       -5.41800       66.43300
C         89.07100       -4.37500       65.35200
O         89.80900       -3.39200       65.27700
N         88.07000       -4.58500       64.50500
N         89.94100       -8.25000       67.37400
C         89.98000       -9.27900       68.40500
C         91.40800       -9.77500       68.58800
O         91.88100       -9.92500       69.71500
C         89.06400      -10.44500       68.01900
C         87.59200      -10.06700       68.06400
O         86.74400      -10.89700       67.66600
O         87.28700       -8.93700       68.50100
N         92.10000      -10.01500       67.47600
C         93.47900      -10.49200       67.53400
C         94.43400       -9.47800       68.16700
O         95.23500       -9.83500       69.03100
C         93.97700      -10.85700       66.13100
C         93.36600      -12.11900       65.50900
C         93.80600      -12.25300       64.05600
C         93.78900      -13.33300       66.32000
N         94.35300       -8.22300       67.73700
C         95.23400       -7.18400       68.26700
C         94.98700       -6.93300       69.75300
O         95.92400       -6.64500       70.50200
C         95.05400       -5.87800       67.49200
O         93.76200       -5.33800       67.69500
N         93.72700       -7.03700       70.16900
C         93.36400       -6.84100       71.57000
C         93.94200       -7.96200       72.42800
O         94.45200       -7.72100       73.52300
C         91.84300       -6.82600       71.74100
C         91.14700       -5.62500       71.13200
C         89.64600       -5.65700       71.34900
O         88.95400       -4.73000       70.87700
O         89.15600       -6.61000       71.99400
N         93.85700       -9.18900       71.92600
C         94.36300      -10.34400       72.65400
C         95.88600      -10.43800       72.63000
O         96.49600      -10.87300       73.60100
C         93.75500      -11.62700       72.08600
N         96.49600      -10.02500       71.52400
C         97.94500      -10.09400       71.38100
C         98.50600       -8.72800       70.98700
O         98.84500       -8.49100       69.82500
C         98.30100      -11.14900       70.32800
C         97.59100      -12.46500       70.52500
C         96.49900      -12.81400       69.73100
C         97.99300      -13.34400       71.52700
C         95.81800      -14.01600       69.93200
C         97.31900      -14.54600       71.73700
C         96.22800      -14.88400       70.93800
N         98.62600       -7.81200       71.96400
C         99.13700       -6.45700       71.74100
C        100.53400       -6.29000       71.14500
O        100.85800       -5.21500       70.65100
C         98.99100       -5.79800       73.12000
C         99.09400       -6.94500       74.06500
C         98.28400       -8.01800       73.38200
N        101.35700       -7.33400       71.17200
C        102.70700       -7.23200       70.60800
C        102.80000       -7.75500       69.17600
O        103.87900       -7.75400       68.57500
C        103.71700       -7.99200       71.47600
C        103.35300       -9.45400       71.65400
O        104.24000      -10.24300       72.04400
O        102.17900       -9.81700       71.41900
N        101.66900       -8.18700       68.62800
C        101.63000       -8.74100       67.27900
C        101.34700       -7.74500       66.16500
O        100.52700       -6.84000       66.32100
C        100.58600       -9.86000       67.21800
N        102.04300       -7.91000       65.04200
C        101.78700       -7.07300       63.87300
C        100.51100       -7.73400       63.35000
O        100.42000       -8.96300       63.34300
C        102.90500       -7.20500       62.80600
C        104.23000       -6.68400       63.36700
C        102.52900       -6.43400       61.54900
C        104.16100       -5.27800       63.88400
N         99.52600       -6.94600       62.93800
C         98.27000       -7.51800       62.45500
C         98.05700       -7.33900       60.95400
O         98.42500       -6.31200       60.37500
C         97.06200       -6.90400       63.19900
C         97.21900       -7.09400       64.71400
C         95.77000       -7.54900       62.71000
C         97.16700       -8.54400       65.18700
N         97.45500       -8.34800       60.33100
C         97.20200       -8.28800       58.90700
C         96.04200       -9.17300       58.50900
O         95.31000       -9.67900       59.36200
N         95.87200       -9.36100       57.20900
C         94.79000      -10.19200       56.70400
C         95.26100      -11.05600       55.55200
O         95.96700      -10.58100       54.66200
C         93.62700       -9.32400       56.19900
C         92.43100      -10.10600       55.63000
C         91.53200      -10.53800       56.78200
C         91.63600       -9.25600       54.65200
N         94.87500      -12.32800       55.59200
C         95.16100      -13.27500       54.52400
C         93.76300      -13.36100       53.90300
O         92.77500      -13.44700       54.63100
C         95.59200      -14.62500       55.10000
O         95.83700      -15.55400       54.06100
N         93.65300      -13.33100       52.58000
C         92.31400      -13.32900       51.99800
C         92.04900      -14.28500       50.84600
O         92.94500      -14.59300       50.04700
C         91.97600      -11.90300       51.55400
C         90.53000      -11.74200       51.17900
O         89.66900      -11.79400       52.08200
O         90.25600      -11.56900       49.98100
N         90.80200      -14.74300       50.76300
C         90.39600      -15.66000       49.70700
C         89.07800      -15.27500       49.04300
O         88.38300      -16.13800       48.50900
C         90.30100      -17.09300       50.25000
C         91.59000      -17.60600       50.81000
N         91.99600      -17.34500       52.10100
C         92.59300      -18.31500       50.23700
C         93.19200      -17.87000       52.30000
N         93.57600      -18.46300       51.18400
N         88.72700      -13.99100       49.09000
C         87.50300      -13.52400       48.44400
C         87.82300      -13.35200       46.96400
O         88.94600      -13.60800       46.53500
C         87.01200      -12.16000       49.01200
O         87.97700      -11.14000       48.72700
C         86.79500      -12.25600       50.52100
N         86.84400      -12.90900       46.18600
C         87.04100      -12.73400       44.75000
C         87.60900      -11.38300       44.31900
O         87.88700      -11.17700       43.13700
C         85.72100      -12.99000       44.01800
C         85.16000      -14.40800       44.16100
C         83.82100      -14.50300       43.43200
C         86.14900      -15.41800       43.59900
N         87.78200      -10.45900       45.25900
C         88.31700       -9.14700       44.90200
C         89.09900       -8.46300       46.01800
O         89.40300       -9.07600       47.03600
C         87.19200       -8.22800       44.39700
C         86.04600       -8.10100       45.38500
O         86.31800       -7.85400       46.57700
O         84.87100       -8.24000       44.96700
N         89.41900       -7.18800       45.80400
C         90.20700       -6.37800       46.73800
C         89.46200       -5.74100       47.90300
O         90.09000       -5.19700       48.80900
C         90.89000       -5.23900       45.97500
C         92.01200       -5.71100       45.08500
O         92.33000       -5.06600       44.08600
N         92.63300       -6.82100       45.44400
N         88.13800       -5.78100       47.89700
C         87.40500       -5.11400       48.96500
C         87.80000       -5.51100       50.38200
O         88.06200       -4.64100       51.20800
C         85.89600       -5.27100       48.75500
C         85.38500       -4.52800       47.53500
C         85.64100       -3.16700       47.36600
C         84.64700       -5.18500       46.54900
C         85.17400       -2.47600       46.24000
C         84.17700       -4.50700       45.42400
C         84.44600       -3.15300       45.27800
O         83.98800       -2.48300       44.17000
N         87.86000       -6.80700       50.67000
C         88.23800       -7.25200       52.00800
C         89.60100       -6.70900       52.43500
O         89.74900       -6.19800       53.54400
C         88.23600       -8.77000       52.08000
N         90.59600       -6.81600       51.56200
C         91.93000       -6.31600       51.88700
C         91.96200       -4.80000       52.09300
O         92.65400       -4.30800       52.98700
C         92.92800       -6.72100       50.80100
S         93.49500       -8.43400       50.93600
N         91.22900       -4.05500       51.26800
C         91.19200       -2.60700       51.42800
C         90.55900       -2.26900       52.77500
O         90.96600       -1.32100       53.43600
C         90.39900       -1.93800       50.29800
C         91.09300       -1.73000       48.94200
C         92.36800       -0.91400       49.12300
C         91.43900       -3.04300       48.32700
N         89.56500       -3.05000       53.18300
C         88.93900       -2.79700       54.46700
C         89.93400       -3.09500       55.57800
O         89.95700       -2.41800       56.60800
N         90.76600       -4.11000       55.36600
C         91.75900       -4.48500       56.36600
C         92.75200       -3.34100       56.56600
O         93.13600       -3.03800       57.69400
C         92.48800       -5.76300       55.93900
N         93.16600       -2.69700       55.47900
C         94.10000       -1.57700       55.60800
C         93.44900       -0.44400       56.39900
O         94.06900        0.13700       57.28700
C         94.54700       -1.02000       54.23300
C         95.46900        0.18300       54.43300
C         95.27700       -2.08600       53.45200
N         92.19400       -0.13600       56.08600
C         91.49300        0.93400       56.78800
C         91.42600        0.67200       58.29000
O         91.47500        1.60800       59.08800
C         90.08000        1.10700       56.21600
N         91.31600       -0.59600       58.67600
C         91.24300       -0.96100       60.08900
C         92.61000       -0.97900       60.77800
O         92.69000       -1.08700       62.00500
C         90.58200       -2.33400       60.25800
C         89.06500       -2.41400       60.45400
C         88.33600       -1.90600       59.22800
C         88.67800       -3.86700       60.72400
N         93.68100       -0.89100       59.99700
C         95.01100       -0.90400       60.58300
C         95.92000       -2.04500       60.15200
O         97.01300       -2.20000       60.70000
N         95.48900       -2.84000       59.17400
C         96.30700       -3.95500       58.70900
C         97.64500       -3.55000       58.10900
O         97.72800       -2.55600       57.38900
N         98.69000       -4.32800       58.39700
C        100.03700       -4.04100       57.90200
C        100.52700       -5.03700       56.86300
O        101.49800       -4.77900       56.15600
C        101.03800       -4.01400       59.06700
O        100.81200       -2.90400       59.91400
N         99.86400       -6.18200       56.78700
C        100.24200       -7.21400       55.83500
C         98.99600       -7.72700       55.14100
O         98.02500       -8.09000       55.79000
C        100.93800       -8.41000       56.53600
C        102.20900       -7.93200       57.24000
C        101.25400       -9.50000       55.52100
C        102.91500       -9.01800       58.04200
N         99.02600       -7.73700       53.81600
C         97.90000       -8.22300       53.03600
C         98.39000       -9.39500       52.20300
O         99.49300       -9.37100       51.66300
C         97.36800       -7.12800       52.12300
C         96.93400       -5.82500       52.79300
C         96.53100       -4.84100       51.71700
C         95.78000       -6.08300       53.75500
N         97.55400      -10.41500       52.08800
C         97.93300      -11.59600       51.34800
C         96.79100      -12.07800       50.46000
O         95.64800      -12.16400       50.89900
C         98.32100      -12.67000       52.36300
C         99.12800      -13.82400       51.85400
C         99.73100      -14.59600       53.01200
O        100.95600      -14.49000       53.23700
O         98.97000      -15.29300       53.71300
N         97.11400      -12.35200       49.20100
C         96.16200      -12.87700       48.22900
C         96.95100      -13.77300       47.29500
O         98.13700      -13.54000       47.05400
C         95.51600      -11.76100       47.40400
C         94.37900      -11.03500       48.10300
C         93.09000      -11.27500       47.34700
N         92.91800      -10.29500       46.29100
C         92.16900      -10.46600       45.20700
N         92.08700       -9.49000       44.32200
N         91.52900      -11.60600       44.99000
N         96.30500      -14.81300       46.78400
C         96.98300      -15.68400       45.84800
C         97.20800      -14.82700       44.60400
O         96.48000      -13.86000       44.37100
C         96.12400      -16.91800       45.57800
C         96.14400      -17.90500       46.70600
N         96.86300      -19.08000       46.65500
C         95.58400      -17.86100       47.93900
C         96.74700      -19.71800       47.80600
N         95.97600      -18.99900       48.60300
N         98.23100      -15.15900       43.82600
C         98.56500      -14.36900       42.64900
C         98.82100      -15.21400       41.41300
O         99.47200      -16.25500       41.48200
C         99.80100      -13.50200       42.95600
C        100.28700      -12.68000       41.78800
C        101.11000      -13.24100       40.81500
C         99.91300      -11.34900       41.65800
C        101.55300      -12.48700       39.72800
C        100.35200      -10.58400       40.57200
C        101.17300      -11.16000       39.60700
N         98.31100      -14.75000       40.27900
C         98.50800      -15.44800       39.01800
C         98.82300      -14.41100       37.94900
O         98.47300      -13.24300       38.10100
C         97.25200      -16.24500       38.60000
O         97.52600      -16.96100       37.38900
C         96.06600      -15.30500       38.36200
N         99.51100      -14.82200       36.88700
C         99.82200      -13.88800       35.81500
C         98.57500      -13.63300       34.97200
O         98.41200      -12.55300       34.41300
C        100.95200      -14.40900       34.92700
C        100.67000      -15.77900       34.34900
O        101.32800      -16.11900       33.34400
O         99.81800      -16.51900       34.89100
N         97.70400      -14.63300       34.87200
C         96.46200      -14.47000       34.12100
C         95.35000      -15.34700       34.67800
O         95.59700      -16.44300       35.19100
C         96.67600      -14.72800       32.62600
C         97.21400      -16.08300       32.24300
C         97.22500      -16.19300       30.71600
N         97.65600      -17.50400       30.24200
C         98.91300      -17.93200       30.26500
N         99.21100      -19.14400       29.81200
N         99.87500      -17.14700       30.73600
N         94.12000      -14.85300       34.58000
C         92.96600      -15.56200       35.12700
C         92.52000      -16.84000       34.42100
O         91.72400      -17.59700       34.97400
C         91.77300      -14.60300       35.24100
C         92.02600      -13.36500       36.11400
S         92.65600      -13.70000       37.79600
C         91.26700      -14.58700       38.53600
N         93.02200      -17.09100       33.21600
C         92.62900      -18.29400       32.48300
C         93.55900      -19.48100       32.75800
O         93.60100      -20.44800       31.99300
C         92.56800      -18.00400       30.97800
C         93.93500      -17.75800       30.37500
O         94.89500      -17.56500       31.14900
O         94.04900      -17.75500       29.13000
N         94.30800      -19.40100       33.85200
C         95.21100      -20.48300       34.23700
C         94.39700      -21.56000       34.94300
O         93.38300      -21.26500       35.58200
C         96.27800      -19.97900       35.20900
C         97.35000      -19.11000       34.59900
C         98.37400      -19.93900       33.84800
N         99.55900      -19.14300       33.53600
C        100.58600      -19.57700       32.81600
N        101.61700      -18.77300       32.59200
N        100.58200      -20.81000       32.31900
N         94.82700      -22.82500       34.83400
C         94.11100      -23.92100       35.48900
C         94.62300      -24.03100       36.92200
O         95.76400      -23.67000       37.19800
C         94.49600      -25.12600       34.64300
C         95.93100      -24.82100       34.30200
C         95.89900      -23.34000       33.95800
N         93.78900      -24.52700       37.82900
C         94.21700      -24.66300       39.21100
C         93.10500      -24.38200       40.19900
O         92.25100      -23.52900       39.94300
N         93.09100      -25.07500       41.34900
C         92.03800      -24.85500       42.34700
C         92.05900      -23.51600       43.08500
O         91.03500      -23.09400       43.62000
C         92.20600      -26.04400       43.29400
C         93.68400      -26.32500       43.22000
C         93.96600      -26.19600       41.73800
N         93.20800      -22.84300       43.10700
C         93.31800      -21.56200       43.80600
C         93.22400      -20.34300       42.89300
O         93.16300      -19.21100       43.37300
C         94.64100      -21.48300       44.58400
C         94.83400      -22.64600       45.55200
O         93.87800      -23.42000       45.78300
O         95.95100      -22.78200       46.09200
N         93.21900      -20.56200       41.58300
C         93.14800      -19.45000       40.63700
C         91.89800      -18.58500       40.81300
O         91.94200      -17.37200       40.60400
C         93.18600      -19.95600       39.17200
C         94.50400      -20.69600       38.90100
C         93.02400      -18.78200       38.20900
C         95.75900      -19.87900       39.22200
N         90.78700      -19.20900       41.20300
C         89.52500      -18.49100       41.36800
C         89.59400      -17.23800       42.25000
O         89.01400      -16.20200       41.90900
C         88.41800      -19.42900       41.90800
C         88.76600      -19.92300       43.30500
C         87.08100      -18.69700       41.91200
N         90.30100      -17.31800       43.37200
C         90.40900      -16.16900       44.26300
C         91.73900      -15.42300       44.15200
O         92.05600      -14.57700       44.99100
C         90.16900      -16.60800       45.71200
S         91.19000      -17.99800       46.29300
N         92.51600      -15.73100       43.11900
C         93.80500      -15.06900       42.92000
C         93.64800      -13.69300       42.30400
O         92.70300      -13.43400       41.55500
C         94.71300      -15.89500       41.99700
O         95.18800      -17.06600       42.62900
N         94.57900      -12.80200       42.62900
C         94.56300      -11.47500       42.04500
C         95.54800      -11.57800       40.88300
O         96.35300      -12.50700       40.83300
C         95.00400      -10.41200       43.07000
C         96.46900      -10.43900       43.47400
S         96.88800       -9.22900       44.77900
C         98.16700      -10.17700       45.66800
N         95.46200      -10.66100       39.92800
C         96.36900      -10.68700       38.78800
C         97.13100       -9.36600       38.75300
O         96.88200       -8.48700       39.58000
C         95.58500      -10.92100       37.48400
C         94.60300       -9.81100       37.17300
O         93.87800       -9.87700       36.18300
N         94.57700       -8.78600       38.00400
N         98.07000       -9.20300       37.80900
C         98.79700       -7.92900       37.79400
C         97.93200       -6.67100       37.88900
O         98.22600       -5.77400       38.68200
C         99.63300       -8.00300       36.50300
C         99.05200       -9.18400       35.73000
C         98.59200      -10.12800       36.78900
N         96.86300       -6.60200       37.10000
C         95.99000       -5.43400       37.14100
C         95.34800       -5.23500       38.51500
O         95.34500       -4.12800       39.04700
C         94.88500       -5.53800       36.08300
C         95.42000       -5.44700       34.66300
O         96.25800       -4.56100       34.39700
O         94.99200       -6.25300       33.81200
N         94.80100       -6.30200       39.08800
C         94.15700       -6.18200       40.38600
C         95.16700       -5.97300       41.51800
O         94.82600       -5.41500       42.55700
C         93.23300       -7.39200       40.66000
O         93.96000       -8.61400       40.50500
C         92.07000       -7.38700       39.66200
N         96.41000       -6.40200       41.30900
C         97.45300       -6.18900       42.30500
C         97.74900       -4.69400       42.33700
O         97.89800       -4.09700       43.40000
C         98.74800       -6.91600       41.93600
C         99.93100       -6.49100       42.77400
C        100.10900       -7.00200       44.05800
C        100.81800       -5.51600       42.31200
C        101.14600       -6.55000       44.87300
C        101.85800       -5.05400       43.11900
C        102.02100       -5.57200       44.40300
N         97.85700       -4.09400       41.15600
C         98.14500       -2.67100       41.07600
C         97.06700       -1.85200       41.76900
O         97.37000       -0.87700       42.45200
C         98.27400       -2.23400       39.61900
C         99.55000       -2.71500       38.94900
C         99.73400       -2.06300       37.58900
C        101.08300       -2.42000       36.98400
N        101.25900       -1.82400       35.62900
N         95.81100       -2.25600       41.59800
C         94.69800       -1.55000       42.21700
C         94.80100       -1.68200       43.73200
O         94.58400       -0.71800       44.46000
C         93.35300       -2.13000       41.75900
C         93.22300       -2.36100       40.25800
C         91.86400       -2.93000       39.86900
O         91.38000       -3.85800       40.55800
O         91.28300       -2.45500       38.87000
N         95.13700       -2.88200       44.20000
C         95.25500       -3.11800       45.63200
C         96.38600       -2.28400       46.20300
O         96.23300       -1.66500       47.24800
C         95.50300       -4.60200       45.93100
C         95.63400       -4.99900       47.41100
C         94.37200       -4.61800       48.17100
C         95.88200       -6.49900       47.52400
N         97.52100       -2.25600       45.51100
C         98.65100       -1.47900       45.99700
C         98.28600       -0.00400       46.10900
O         98.61100        0.64600       47.10100
C         99.86100       -1.65800       45.07900
C        101.14500       -1.09900       45.67700
C        102.35900       -1.42100       44.82500
C        103.64000       -0.93900       45.51100
N        104.85700       -1.27800       44.71500
N         97.60300        0.51800       45.09300
C         97.18800        1.91800       45.07600
C         96.20900        2.22000       46.21200
O         96.36700        3.20500       46.93600
C         96.54100        2.25600       43.72600
C         95.95800        3.66500       43.63100
C         95.37300        3.96100       42.25600
O         96.08600        3.95100       41.25200
N         94.07000        4.21900       42.20600
N         95.20300        1.36800       46.36600
C         94.22200        1.56900       47.41700
C         94.81900        1.45300       48.80700
O         94.47000        2.22200       49.71000
N         95.72600        0.49700       48.98600
C         96.37000        0.29800       50.28500
C         97.17300        1.53600       50.66700
O         97.23600        1.92800       51.83800
C         97.27600       -0.92200       50.24000
N         97.79100        2.15200       49.67200
C         98.57600        3.35200       49.91400
C         97.65900        4.48800       50.35600
O         97.93400        5.18500       51.33900
C         99.31200        3.76100       48.64100
C        100.17700        4.96900       48.81400
N        101.28600        4.97400       49.63200
C        100.08100        6.21700       48.29900
C        101.83600        6.17500       49.61400
N        101.12500        6.94800       48.81300
N         96.56000        4.67000       49.62900
C         95.61800        5.73100       49.95300
C         95.04200        5.53500       51.34600
O         94.93100        6.49000       52.11300
C         94.49300        5.78100       48.91600
N         94.68400        4.29600       51.67700
C         94.11200        4.01300       52.98300
C         95.14700        4.06200       54.09600
O         94.80700        4.31800       55.24700
C         93.36700        2.67700       52.95300
C         92.02700        2.84300       52.21600
C         91.40800        1.49100       51.91200
C         91.08900        3.69700       53.05800
N         96.41000        3.82400       53.76000
C         97.46800        3.91200       54.75900
C         97.49100        5.37000       55.23000
O         97.61900        5.65000       56.41700
C         98.82300        3.54700       54.14200
C        100.03700        3.90500       55.01000
C        100.06500        3.11900       56.32300
C        101.22300        3.55700       57.22600
N        101.09700        4.98100       57.66600
N         97.35000        6.29100       54.28100
C         97.36000        7.72200       54.57800
C         96.10600        8.21400       55.30100
O         96.19500        9.03600       56.21600
C         97.53300        8.51900       53.27800
C         98.90100        8.43200       52.58700
C         98.83000        9.03300       51.18800
C         99.93900        9.16200       53.43000
N         94.94400        7.70200       54.90100
C         93.67000        8.12900       55.47700
C         93.27600        7.52400       56.81700
O         92.51700        8.13600       57.56600
C         92.53600        7.88500       54.45900
N         93.78600        6.33700       57.13200
C         93.40900        5.67500       58.37600
C         93.92900        6.31700       59.65600
O         94.83400        7.14500       59.63000
C         93.84000        4.20700       58.34200
C         95.33800        3.98200       58.48200
C         95.67200        2.50800       58.29500
N         97.08100        2.22700       58.54700
C         97.66800        1.06900       58.27500
N         98.95900        0.90100       58.54000
N         96.96800        0.08000       57.73400
N         93.33300        5.91800       60.77600
C         93.73500        6.42600       62.07700
C         93.54900        7.91500       62.28800
O         92.62000        8.52500       61.75200
N         94.44100        8.50100       63.07900
C         94.35900        9.92200       63.35700
C         93.34900       10.20700       64.45000
O         92.73000        9.28900       64.98700
N         93.17800       11.48300       64.77700
C         92.24500       11.88500       65.82300
C         91.30300       12.97200       65.32600
O         91.68000       13.80700       64.50300
C         93.01600       12.38500       67.04800
C         93.93100       11.34200       67.66200
C         94.63000       11.87000       68.90700
C         93.64100       12.15400       70.03400
N         94.31200       12.73200       71.24100
N         90.07500       12.95200       65.82800
C         89.07100       13.92900       65.43000
C         89.48100       15.37000       65.68900
O         89.31000       16.23700       64.83200
C         87.75100       13.66700       66.15600
C         86.67400       14.70300       65.85300
C         86.30900       14.69100       64.37700
C         85.34500       15.81500       64.02200
N         85.09500       15.85700       62.55100
N         90.01800       15.62200       66.87400
C         90.40700       16.97000       67.26100
C         91.63100       17.59000       66.59300
O         91.91700       18.76500       66.81300
C         90.55600       17.03400       68.78400
C         89.22600       16.85100       69.49900
O         88.18000       16.87400       68.81600
O         89.22200       16.69200       70.73800
N         92.34700       16.82300       65.77600
C         93.53000       17.35600       65.10500
C         93.16700       18.51500       64.17700
O         92.23700       18.41500       63.37500
C         94.24700       16.26800       64.27900
O         94.63800       15.19300       65.14200
C         95.48500       16.84200       63.60200
N         93.91200       19.61100       64.28600
C         93.67000       20.79600       63.46400
C         94.30700       20.66500       62.08500
O         95.51200       20.45600       61.96700
C         94.22400       22.06900       64.14800
C         93.46400       22.32200       65.45400
C         94.10000       23.27000       63.21100
C         93.95800       23.52600       66.22200
N         93.48700       20.78500       61.04600
C         93.96300       20.68200       59.67000
C         94.13600       22.09100       59.11100
O         93.15800       22.80900       58.89400
C         92.95900       19.90300       58.78900
C         92.67400       18.52800       59.40800
C         93.50900       19.75300       57.37800
C         93.88800       17.62700       59.52000
N         95.38500       22.48200       58.88000
C         95.69200       23.81500       58.37400
C         94.93200       24.16400       57.10500
O         94.49400       25.30200       56.93200
C         97.19500       23.94900       58.13500
N         94.77300       23.18500       56.22100
C         94.07500       23.42400       54.97200
C         92.64300       23.90300       55.11400
O         92.07900       24.45800       54.17100
N         92.05100       23.69500       56.28700
C         90.67400       24.11400       56.53200
C         90.52400       25.58800       56.92700
O         89.41100       26.11700       56.92900
C         90.04100       23.23900       57.62400
C         89.59200       21.85300       57.16500
C         88.91200       21.06000       58.27900
O         88.15200       20.12300       57.97000
O         89.14000       21.36700       59.46500
N         91.63300       26.25400       57.24200
C         91.58800       27.65800       57.67100
C         90.71400       28.58200       56.81900
O         89.80800       29.23300       57.33300
C         93.00200       28.24400       57.74800
C         93.04000       29.69100       58.24400
C         92.97000       29.75700       59.76300
C         92.66400       31.16500       60.26900
N         93.35100       32.23900       59.50400
N         90.97700       28.66000       55.50800
C         90.15500       29.54100       54.66600
C         88.66000       29.23900       54.73000
O         87.83100       30.13800       54.59800
C         90.74300       29.33800       53.26800
C         91.32300       27.95200       53.33700
C         91.96700       27.93400       54.69700
N         88.31200       27.97400       54.93500
C         86.90600       27.60900       55.01700
C         86.32500       28.08900       56.34600
O         85.22100       28.63300       56.39200
C         86.72000       26.09300       54.88400
O         87.34200       25.64700       53.67100
C         85.23700       25.74300       54.84700
N         87.07400       27.89300       57.42500
C         86.62000       28.33200       58.73900
C         86.39900       29.84300       58.74300
O         85.46500       30.34300       59.36400
C         87.65000       27.97500       59.81500
C         87.76900       26.48900       60.11200
C         88.89000       26.21800       61.11100
C         88.96600       24.73900       61.46300
N         90.15400       24.41400       62.30400
N         87.25000       30.57500       58.03900
C         87.10900       32.01900       58.02200
C         85.83200       32.52300       57.34500
O         85.24600       33.50800       57.79800
C         88.36600       32.66500       57.41400
C         89.58700       32.54100       58.33800
O         89.40600       32.62000       59.57100
O         90.72300       32.37500       57.84900
N         85.36800       31.85400       56.28900
C         84.14900       32.32400       55.63600
C         82.88000       31.57100       56.03000
O         81.77900       32.10900       55.91200
C         84.29500       32.30600       54.10300
C         84.04900       30.96000       53.46500
C         85.11300       30.18600       53.01500
C         82.74800       30.48800       53.27100
C         84.89300       28.96400       52.37700
C         82.51500       29.27000       52.63400
C         83.59200       28.50500       52.18400
N         83.03300       30.33800       56.50500
C         81.88300       29.52000       56.87400
C         81.32700       29.73800       58.28500
O         80.12700       29.56800       58.50500
C         82.21300       28.03900       56.66200
N         82.18000       30.10200       59.23800
C         81.71400       30.33300       60.60900
C         80.87500       31.60400       60.67400
O         81.13400       32.55600       59.94400
C         82.89700       30.43800       61.57700
C         83.52700       29.11200       61.92600
C         83.07700       27.92800       61.34600
C         84.58100       29.05100       62.83500
C         83.66700       26.70700       61.66600
C         85.17800       27.83300       63.16200
C         84.72000       26.65900       62.57600
N         79.87800       31.61500       61.55600
C         78.97800       32.76000       61.69000
C         79.35900       33.73900       62.80000
O         80.00500       33.36900       63.78400
C         77.54300       32.26600       61.90000
N         78.96300       34.99700       62.60900
C         79.21400       36.07400       63.56500
C         77.85700       36.67600       63.92800
O         76.88200       36.49200       63.19900
C         80.10200       37.15000       62.93600
O         81.36400       36.61700       62.56300
N         77.78600       37.39700       65.04500
C         76.52000       37.99600       65.45200
C         76.22500       39.29700       64.71700
O         77.08200       40.17500       64.60800
C         76.48200       38.26900       66.96800
C         75.12800       38.87400       67.34800
C         76.72400       36.97400       67.73600
N         74.99600       39.41500       64.22500
C         74.56400       40.59600       63.49200
C         73.23700       41.12500       64.03900
O         72.49800       40.40200       64.70700
C         74.36600       40.26500       61.99600
C         75.67200       39.77400       61.39000
C         73.29000       39.20400       61.84300
N         72.93600       42.38700       63.75600
C         71.67900       42.96800       64.20400
C         70.58100       42.41000       63.30100
O         70.69500       42.45500       62.07100
C         71.73100       44.48100       64.09200
N         69.52600       41.87300       63.90400
C         68.42700       41.31600       63.12700
C         67.33600       42.37700       62.97300
O         66.34200       42.18200       62.27100
C         67.87800       40.06500       63.82000
C         67.09100       39.17300       62.87500
O         67.56300       38.94300       61.74000
O         66.00700       38.69200       63.26700
N         67.54500       43.50700       63.63700
C         66.61500       44.63000       63.59200
C         67.39400       45.92000       63.77500
O         68.47300       45.92300       64.36800
C         65.59600       44.55300       64.73200
C         64.45400       43.57400       64.56700
C         63.46800       43.76300       65.71800
C         62.19800       42.95300       65.53000
N         61.20600       43.24800       66.60600
N         66.85100       47.01700       63.26100
C         67.49000       48.30700       63.45900
C         67.33700       48.52200       64.96200
O         66.22400       48.46300       65.48800
C         66.74900       49.40800       62.69400
C         67.26800       49.58800       61.28300
O         67.32600       48.59300       60.53200
O         67.61500       50.73100       60.92200
N         68.45000       48.73600       65.65300
C         68.41800       48.94300       67.09500
C         68.78800       50.38100       67.42700
O         69.84600       50.86500       67.02900
C         69.40200       47.99400       67.81000
C         69.06400       46.54400       67.45600
C         69.33700       48.20900       69.31300
C         70.01500       45.52200       68.04800
N         67.90700       51.06300       68.15200
C         68.15000       52.44900       68.53500
C         69.06900       52.50100       69.74800
O         69.04100       51.60800       70.59700
C         66.82800       53.15000       68.86400
C         65.83100       53.17900       67.71400
C         64.53800       53.87400       68.11800
C         63.55100       53.92600       66.95900
N         62.28800       54.62400       67.33100
N         69.88900       53.54400       69.82200
C         70.80200       53.70900       70.94600
C         70.01700       53.61300       72.25000
O         68.91800       54.15700       72.36100
C         71.49800       55.06900       70.87100
C         72.36300       55.37900       72.08500
C         73.00000       56.75600       71.98900
C         73.87600       57.02900       73.20300
N         74.57200       58.34200       73.11400
N         70.57800       52.91400       73.23100
C         69.90300       52.77500       74.50800
C         69.10800       51.49100       74.63500
O         69.00800       50.93100       75.72600
N         68.53500       51.02600       73.52700
C         67.75300       49.79200       73.53500
C         68.62400       48.62200       73.97300
O         69.84500       48.66400       73.83500
C         67.17600       49.50800       72.14400
C         66.05000       50.44100       71.72600
C         65.46700       50.07500       70.37200
O         64.45600       50.69300       69.97100
O         66.02100       49.17200       69.70800
N         67.98500       47.57900       74.49600
C         68.69100       46.39100       74.96700
C         68.73700       45.30800       73.89400
O         67.74800       45.07100       73.19600
C         67.99600       45.82400       76.20600
C         67.67800       46.80600       77.33700
C         66.92000       46.08100       78.43800
C         68.96400       47.41200       77.87300
N         69.88300       44.64500       73.77000
C         70.02900       43.57300       72.79200
C         69.28700       42.34700       73.31300
O         69.23000       42.11600       74.52200
C         71.50700       43.23100       72.58200
C         72.42600       44.37300       72.14100
C         73.79100       43.80500       71.77600
C         71.82900       45.10000       70.94800
N         68.71400       41.56900       72.40100
C         67.97800       40.36900       72.78100
C         67.93900       39.38700       71.61900
O         68.33100       39.72100       70.50000
C         66.54500       40.73200       73.16800
O         65.82200       41.16500       72.03000
N         67.44900       38.18100       71.88900
C         67.35100       37.17300       70.84900
C         66.27500       37.54800       69.85200
O         65.99800       36.81000       68.90700
N         65.67000       38.71200       70.05800
C         64.61500       39.18400       69.17600
C         65.16200       40.14500       68.11900
O         64.63300       40.22900       67.00600
C         63.53000       39.87800       70.00400
C         62.23100       40.04800       69.24300
O         61.27800       40.61300       69.82200
O         62.15700       39.61700       68.07100
N         66.22400       40.86800       68.46100
C         66.80700       41.81800       67.52300
C         68.24700       41.49200       67.13500
O         68.96400       42.33400       66.59900
C         66.71000       43.24500       68.08300
C         67.39700       43.40300       69.42600
O         67.15500       44.37800       70.14500
N         68.26100       42.46300       69.76600
N         68.65800       40.26100       67.40800
C         69.99600       39.80100       67.06400
C         69.88200       38.42000       66.43600
O         68.95500       37.67200       66.73800
C         70.88100       39.68700       68.30800
C         71.26900       40.92000       69.12400
C         72.21000       40.47300       70.23200
C         71.94400       41.95800       68.24600
N         70.82000       38.09600       65.55400
C         70.86500       36.78500       64.91900
C         72.32300       36.53400       64.53200
O         73.21100       37.27600       64.95700
C         69.94800       36.72800       63.69100
C         69.75900       35.32600       63.16100
C         69.96600       34.89800       61.87700
C         69.36300       34.16900       63.90900
N         69.72900       33.54500       61.78400
C         69.35600       33.07400       63.01500
C         69.01200       33.95000       65.25000
C         69.01500       31.77900       63.41900
C         68.67200       32.66300       65.65100
C         68.67600       31.59300       64.73800
N         72.58000       35.49800       63.74000
C         73.95000       35.18600       63.34500
C         74.05300       34.85700       61.85600
O         73.16900       34.20800       61.29300
C         74.50400       33.99800       64.17200
C         74.58700       34.38300       65.64200
C         73.61100       32.77800       64.00200
N         75.13000       35.31900       61.22500
C         75.35400       35.08100       59.79800
C         76.84100       34.99600       59.46400
O         77.68900       35.47200       60.22600
C         74.75600       36.21600       58.95900
C         73.26600       36.44400       59.11200
C         72.83700       37.62600       58.24500
C         71.35700       37.94900       58.41900
N         70.93500       39.10700       57.58200
N         77.15400       34.39400       58.31700
C         78.53900       34.29200       57.86100
C         78.93600       35.70000       57.41900
O         78.06600       36.53300       57.16500
C         78.63600       33.33200       56.66800
C         78.27000       31.88300       56.97700
C         78.33300       31.03300       55.71000
N         78.30300       29.60000       55.99500
C         78.55500       28.65600       55.09300
N         78.85400       28.99100       53.84400
N         78.52000       27.37500       55.44200
N         80.24700       36.00100       57.33900
C         81.41600       35.16200       57.62600
C         81.79600       35.24200       59.10000
O         81.07400       35.83900       59.90300
C         82.48700       35.75000       56.71400
C         82.18400       37.21700       56.79200
C         80.66100       37.25500       56.68300
N         82.94200       34.66300       59.45000
C         83.35900       34.64700       60.83800
C         84.33700       35.70600       61.30800
O         85.06000       35.47700       62.27700
N         84.35600       36.86300       60.65500
C         85.28000       37.92300       61.05100
C         84.66700       38.97400       61.97500
O         85.31200       39.97100       62.29000
C         85.86500       38.60900       59.80800
C         84.80500       39.25300       58.92800
O         83.61600       39.24400       59.24700
N         85.23800       39.82200       57.80800
N         83.43200       38.74900       62.41900
C         82.77900       39.71200       63.29700
C         83.34300       39.73300       64.70800
O         83.93200       38.75500       65.16400
N         83.16200       40.84800       65.41000
C         83.66900       40.96300       66.77400
C         83.13000       39.87600       67.70100
O         83.83100       39.42600       68.60900
C         83.33900       42.34300       67.35200
C         84.27200       43.42900       66.84000
O         84.08300       44.60600       67.21300
O         85.19800       43.10300       66.07000
N         81.89200       39.45000       67.46400
C         81.26800       38.42000       68.29000
C         80.87900       37.19300       67.47000
O         80.09800       37.29300       66.52300
C         80.02900       38.99600       68.97800
C         80.33200       40.13900       69.90700
C         80.87400       39.90200       71.16900
C         80.08100       41.44800       69.52100
C         81.15800       40.95800       72.03600
C         80.36100       42.51400       70.37600
C         80.90100       42.26700       71.63900
N         81.43500       36.04200       67.84000
C         81.15500       34.78500       67.15300
C         79.78400       34.26700       67.57300
O         79.21900       34.72100       68.57200
C         82.21800       33.73700       67.50100
O         82.11600       33.35000       68.86200
N         79.25400       33.31800       66.80600
C         77.94800       32.73700       67.09300
C         77.97600       32.07500       68.46900
O         76.93700       31.87300       69.10500
C         77.55900       31.68800       66.02000
C         78.61200       30.59100       65.95200
C         76.19600       31.09800       66.33700
N         79.17800       31.75200       68.92400
C         79.36900       31.12100       70.22100
C         79.02800       32.08000       71.36600
O         78.66600       31.64800       72.46000
C         80.82100       30.65800       70.35300
C         81.05100       29.81100       71.58300
O         80.79400       30.24200       72.70500
N         81.53900       28.59300       71.37700
N         79.14100       33.38100       71.10600
C         78.86600       34.40300       72.11400
C         77.49000       35.04000       71.94200
O         77.14900       35.99300       72.64600
C         79.92400       35.50400       72.03900
C         81.35000       34.99900       71.92800
C         82.31800       36.09700       71.52600
O         82.57100       37.00100       72.34800
O         82.81700       36.06000       70.37900
N         76.70500       34.51800       71.00700
C         75.37600       35.05600       70.73100
C         74.60500       35.47700       71.98200
O         74.26400       36.65100       72.14900
C         74.55200       34.02600       69.95500
C         73.15400       34.48000       69.59300
C         72.94800       35.62300       68.82400
C         72.03900       33.73700       69.98100
C         71.66400       36.01400       68.44400
C         70.75100       34.11700       69.60800
C         70.57200       35.25300       68.83800
O         69.30700       35.61500       68.44100
N         74.33600       34.51100       72.85400
C         73.57900       34.74600       74.08200
C         74.19900       35.69200       75.11000
O         73.48000       36.25000       75.94200
C         73.26300       33.40500       74.75700
C         72.23600       32.56200       74.01700
C         71.96800       31.22900       74.70000
O         72.86800       30.35800       74.69300
O         70.85900       31.05600       75.25000
N         75.51600       35.87500       75.06500
C         76.17600       36.75700       76.02400
C         75.85700       38.22300       75.76200
O         76.10100       39.07700       76.61600
C         77.71100       36.59600       76.00100
O         78.23200       37.13100       74.77700
C         78.09700       35.13500       76.12400
N         75.31800       38.51700       74.58300
C         74.97500       39.88900       74.22700
C         73.58600       40.27700       74.71500
O         73.21900       41.45300       74.69400
C         75.05600       40.08300       72.71200
C         76.46600       40.00800       72.12700
C         76.40400       40.15100       70.61500
C         77.32600       41.11000       72.73700
N         72.81400       39.28600       75.15000
C         71.47100       39.54300       75.64700
C         71.56900       40.42000       76.89100
O         72.33600       40.12500       77.80500
C         70.76600       38.22800       75.99800
C         70.46900       37.34700       74.80900
C         69.79300       36.14300       74.98200
C         70.85700       37.71600       73.52400
C         69.50500       35.31700       73.89500
C         70.57500       36.89700       72.43000
C         69.89800       35.69700       72.61700
N         70.79900       41.50300       76.91700
C         70.82800       42.38900       78.06500
C         71.70000       43.62000       77.89000
O         71.47500       44.63000       78.55300
N         72.70000       43.54400       77.01400
C         73.57800       44.68700       76.77500
C         72.79700       45.85100       76.17200
O         71.71600       45.66400       75.61300
C         74.72400       44.31000       75.83200
C         76.02200       43.91300       76.52400
C         75.90700       42.58000       77.22400
C         77.26600       42.10400       77.70700
N         77.89200       43.06100       78.66100
N         73.35700       47.05000       76.28100
C         72.71000       48.24600       75.75500
C         73.45000       48.80100       74.54300
O         74.67700       48.90600       74.54500
C         72.64100       49.35700       76.82800
C         71.86300       50.55200       76.29200
C         72.00100       48.81400       78.10200
N         72.69900       49.16100       73.51000
C         73.30000       49.71700       72.30600
C         73.96300       51.05000       72.64700
O         73.30200       51.97500       73.13100
C         72.23600       49.91500       71.23300
N         75.26900       51.13700       72.40400
C         76.03200       52.35100       72.68300
C         75.72900       53.41000       71.63300
O         76.16400       54.55500       71.74100
C         77.52400       52.04100       72.69700
N         74.98000       53.00900       70.61300
C         74.59000       53.90200       69.53000
C         73.61700       53.16300       68.62500
O         73.30100       51.99600       68.86300
C         75.81800       54.35200       68.73000
S         76.81600       53.01600       68.02800
N         73.12900       53.83900       67.59500
C         72.19600       53.20400       66.68100
C         72.90200       52.07500       65.94100
O         74.04500       52.22400       65.50200
C         71.64400       54.22400       65.68200
C         70.88900       55.35200       66.36000
O         69.97700       55.11400       67.15500
N         71.26400       56.58700       66.04800
N         72.22300       50.94000       65.82800
C         72.77500       49.78800       65.13000
C         71.88200       49.47000       63.94400
O         70.68000       49.24500       64.09700
C         72.85100       48.55100       66.03900
C         73.74100       48.84900       67.24900
C         73.40400       47.36800       65.25400
C         73.85600       47.69600       68.23000
N         72.47800       49.45300       62.75900
C         71.73900       49.17600       61.54300
C         71.46900       47.68600       61.37300
O         72.33200       46.85000       61.64400
C         72.51500       49.71100       60.33800
C         71.79300       49.56400       59.01600
C         72.53500       50.30700       57.92200
N         72.66700       51.72800       58.23300
C         73.32000       52.60200       57.47400
N         73.38800       53.87800       57.83500
N         73.91000       52.20200       56.35500
N         70.25800       47.36700       60.92900
C         69.85100       45.98600       60.69800
C         70.79900       45.35100       59.68700
O         71.12700       45.96400       58.67100
C         68.42200       45.95400       60.15200
C         67.89800       44.57900       59.76500
C         66.53100       44.70100       59.10000
C         66.00400       43.35900       58.62600
N         65.72800       42.43300       59.75700
N         71.24300       44.13100       59.97500
C         72.13800       43.43700       59.06600
C         73.61000       43.66700       59.34800
O         74.46700       42.95400       58.83100
N         73.90900       44.66600       60.16700
C         75.28900       44.98000       60.50700
C         75.84100       44.03200       61.56400
O         75.10000       43.54700       62.42100
C         75.38000       46.41400       61.00900
N         77.14300       43.76300       61.49400
C         77.79200       42.90700       62.47700
C         77.86100       43.71000       63.76500
O         78.21100       44.89000       63.74200
C         79.22200       42.54700       62.04900
C         79.33300       41.40600       61.04500
C         80.77900       41.00900       60.77100
O         81.04700       39.94300       60.21000
N         81.71600       41.86800       61.16100
N         77.51900       43.08400       64.88500
C         77.57500       43.77800       66.16500
C         79.04200       43.91000       66.54600
O         79.75600       42.91000       66.61300
C         76.86200       42.98700       67.29100
C         75.40500       42.70600       66.90900
C         76.94700       43.76400       68.59900
C         74.59100       43.93700       66.58400
N         79.50400       45.13400       66.77700
C         80.89600       45.32800       67.17000
C         81.01500       45.77600       68.61800
O         80.05100       46.25900       69.21000
C         81.59900       46.32200       66.23600
C         80.79700       47.54400       65.85700
C         81.55000       48.35300       64.80800
C         80.71200       49.50200       64.28100
N         79.48700       49.02200       63.58800
N         82.20200       45.59700       69.18800
C         82.45300       45.96600       70.57600
C         82.05600       47.40300       70.89600
O         81.63400       47.70400       72.01300
C         83.93000       45.74400       70.91700
C         84.34500       44.27800       70.90800
C         85.78200       44.10200       71.37100
C         86.14400       42.62500       71.50300
N         87.55100       42.42000       71.95800
N         82.18600       48.28800       69.91400
C         81.83800       49.68900       70.11400
C         80.32800       49.91300       70.04200
O         79.84600       51.02600       70.26400
C         82.52000       50.58100       69.06400
O         82.10700       50.17800       67.75300
C         84.03300       50.46100       69.17100
N         79.58800       48.84900       69.73900
C         78.13100       48.91900       69.62900
C         77.41000       48.73300       70.96400
O         76.19200       48.89600       71.04700
C         77.62800       47.86500       68.63500
C         77.72800       48.32400       67.19400
O         77.73700       47.45900       66.29300
O         77.78300       49.55000       66.95900
N         78.15200       48.39100       72.00800
C         77.53600       48.19100       73.31100
C         78.20700       49.01500       74.40400
O         79.43500       49.07800       74.48800
C         77.56700       46.70200       73.72200
C         79.01400       46.20900       73.80100
C         76.77300       45.87000       72.71800
C         79.15000       44.78600       74.31600
N         77.38900       49.64500       75.24200
C         77.90800       50.45400       76.33700
C         78.63200       49.59600       77.36600
O         78.63800       48.35500       77.20800
C         76.77500       51.22900       77.02100
C         76.55500       52.62500       76.45600
C         77.81700       53.47000       76.50100
O         78.39100       53.62900       77.60200
O         78.23700       53.97600       75.43700
O         79.18700       50.18100       78.31900
Mn2+      95.47000      -19.20100       50.63700
C         96.34300      -21.16600       52.86100
O         95.36100      -20.31100       52.72800
O         96.23700      -22.03600       53.83300
C         97.56800      -21.21100       51.99200
O         97.56400      -20.21400       50.99000
C         98.85700      -21.06400       52.82500
C         99.12000      -19.69500       53.42000
O        100.33100      -19.21600       53.53100
O         98.15300      -18.94500       53.85000
O        103.56500       -4.25400       48.85700
O         98.03600      -21.27100       45.28600
O         84.13400      -13.15500       47.26600
O         90.43700       -8.77400       49.31900
O         86.74600       -8.76200       49.04200
O         81.65900      -10.59000       57.72400
O         88.70200      -13.50500       56.96500
O         89.05000      -15.11400       53.00600
O         95.77400      -23.05000       41.70100
O         93.51200      -15.11500       47.22100
O        103.70100       -2.95200       56.93600
O        105.53400      -29.61100       53.04500
O         98.30300      -22.98200       36.40500
O         78.57000       38.20500       59.83900
O        104.11200       -6.37300       47.12800
O         97.35200      -24.98900       41.01100
O         97.20400        5.74700       46.12000
O        104.89700      -13.25200       32.66500
O         98.64500      -31.24700       52.20000
O         79.80800       40.43000       65.35900
O         95.44900      -24.93600       62.53000
O         86.81700       35.62400       58.98900
O        111.06100       -6.09100       47.72400
O         99.34100      -29.44500       59.62700
O         84.84500      -31.32500       47.10800
O         91.31700        3.76300       60.84100
O         94.12500      -25.62700       47.59600
O        100.97100       -0.98600       57.47700
O         80.62300       -7.03500       44.47100
O         99.06000        4.34100       59.57200
O        101.85100       -2.15200       49.23300
O        117.44500      -19.23000       39.45300
O        114.54200      -11.16100       58.00100
O        110.25000      -30.07800       40.81900
O         91.86300       32.40300       55.56900
O         90.06100      -21.99600       40.44800
O         90.50900       -3.18600       43.14500
O         90.05600      -13.47600       42.12900
O         88.12000       39.35900       56.81900
O        104.66600        0.36800       63.23500
O        108.36900      -27.18200       47.12900
O        105.91700      -32.50200       59.29000
O        117.81900      -26.86200       57.98100
O        102.00300      -24.92800       34.53300
O        100.76400        0.21200       48.77300
O         80.62000      -20.11200       53.74100
O         89.95300      -17.12100       37.24700
O         95.34700       13.01100       63.90800
O         96.45200      -23.24400       48.70900
O        103.98900      -24.70900       45.76300
O        118.33400      -19.69700       46.10600
O         97.61800      -45.22200       59.58500
O         78.51800      -12.96100       51.10500
O         98.50000       -6.21000       68.14000
O        114.26600      -31.06900       54.44000
O        102.88700       -7.59300       35.14500
O         97.57900        7.05300       58.82500
O         82.21400      -20.13900       48.96900
O         88.66000      -23.61500       42.46600
O        103.19900      -21.65600       30.97400
O         91.96900       24.67900       60.42000
O        114.92000      -27.20600       36.79800
O         89.97100      -13.10500       54.69900
O         91.48600      -41.10100       55.20200
O         85.13000       42.67200       61.54600
O        106.10600       -9.08500       67.31000
O         90.38000      -23.42900       67.70100
O        112.15900      -18.48200       62.90500
O         72.97600       31.69200       60.31300
O        108.23100      -12.39400       70.39500
O         85.89900       32.07400       61.53100
O         83.82800       -9.91000       42.47700
O        114.51300      -13.17500       49.75700
O         90.67400       -9.89000       42.09800
O         88.11800       32.74400       53.43000
O         81.94400       31.74200       64.81600
O         84.24500       49.45900       66.22900
O         87.57400       27.35900       51.59100
O        101.33400      -31.12700       58.76600
O        103.00900      -40.36600       53.07700
O         91.51400      -25.81200       36.60500
O         95.40200        9.75200       60.39000
O        118.10500      -19.97200       61.09100
O        119.48100      -17.41800       45.59200
O         88.89500      -40.81900       54.42000
O        101.87700       -5.08800       34.91900
O        101.51100      -23.75500       57.22400
O         92.74300      -38.62400       44.45400
O        113.98600      -30.99600       51.19300
O         89.23500       -0.60100       44.28500
O         97.42400      -29.10600       62.21300
O         93.35200       25.05100       52.05200
O         69.88700       40.59800       59.93500
O         95.72100      -15.25000       50.74200
O        115.88100      -31.73000       44.05400
O         99.80100        0.37300       42.02300
O        102.36700      -14.58200       31.47300
O         73.34700       53.94600       74.91400
O         90.98100       21.59100       61.57800
O         95.70200      -34.49300       39.43100
O         80.49700      -12.88900       48.31700
O         89.52900       22.04000       63.76700
O        102.64600       -0.97300       40.96100
O        108.67400       -5.42000       41.91500
O         93.48600      -12.41400       32.95000
O         87.41100       17.94600       72.00400
O         97.80800      -24.06700       56.04000
O         92.11100      -39.35300       40.63300
O        102.14000       -2.70700       63.92400
O         89.46500      -27.50500       41.14400
O        101.42600        5.60100       65.26300
O         99.49300      -36.02800       41.54100
O        111.19000      -34.13600       64.61700
O         95.33400       -1.77800       37.50200
O        116.86100      -12.34700       36.18700
O        111.34300      -35.80100       57.82500
O         80.95900      -21.04700       51.42800
O         93.01100      -27.71200       47.32300
O         91.44000      -27.06100       39.47200
O        107.25300        1.83900       54.94200
O         94.22400       31.34900       54.80100
O        113.73300      -32.61100       46.46000
O         96.18500      -19.65300       55.73800
O         73.24700       41.00300       57.53700
O         96.16400       19.74200       66.16100
O         89.61200       19.42600       63.81500
O         96.25200      -45.90500       56.28300
O         96.31300       -4.09000       71.08700
O        108.09600      -38.49200       57.52500
O         98.61500      -23.24000       32.08300
O         90.34300      -10.28700       71.72500
O         83.12900       35.93600       64.70700
O         94.95200      -24.58800       52.62700
O        106.66300      -26.92700       31.77700
O         84.57100       32.75000       64.02400
O         88.29400       30.80400       61.76300
O         91.48500      -27.67000       34.65800
O         84.81100       44.57500       63.94400
O         75.33700       49.57500       62.81100
O         99.47800      -24.36000       34.61200
O         94.59800       -5.43000       74.67800
O         99.69100        5.22300       44.78400
O        109.75300      -21.94100       71.40900
O        117.46100      -14.14300       55.48000
O        116.08900      -18.66200       57.70600
O         97.97400       10.43000       61.21200
O        119.37600      -13.87900       42.55600
O         99.96600      -10.81100       32.82400
O         82.63900       -8.47800       40.65800
O         87.65700      -24.25900       50.04900
O        114.62600       -9.45300       60.42800
O         93.87400        2.64200       61.98900
O         91.83600      -10.69400       39.56500
O         87.89900       -4.85100       43.85100
O         79.69100      -21.23700       55.87700
O         85.76000       47.04200       62.79600
O        101.04200        2.55000       44.32500
O         92.98900      -14.36100       31.21800
O         80.10800      -10.13600       41.05900
O         69.31000       41.62300       57.53000
O         82.18600       42.99200       63.81600
O        111.16600       -0.58600       54.70100
O        105.15500      -10.18200       32.67100
O        109.40900      -31.25400       47.31100
O         76.98500       47.61400       63.76800
O        112.72200      -33.58900       58.26200
O        108.16200       -3.91400       67.77000
O        105.18700       -0.53900       48.67300
O        105.88100      -26.95600       46.00300
O        111.29900      -22.99100       69.52400
O         98.84400      -11.81100       74.55300
O        103.72000        4.80800       53.70700
O        100.88000      -43.46100       56.26900
O        109.29100      -29.52500       67.45400
O        108.27000      -23.91700       73.29500
O         86.47200      -23.21800       44.14500
O         83.98100       -6.27900       39.90100
O        106.66200        1.94300       64.43700
O         96.70800        6.73200       63.93300
O         88.04900       18.26000       59.89000
O         78.71600      -18.94700       56.95900
O         96.81200      -46.35700       61.84800
