4847
PHGDH
N         -4.26800       58.79300       -0.37700
C         -3.65500       58.00400        0.73300
C         -4.34400       58.37100        2.06200
O         -3.76300       59.09700        2.89200
C         -2.14500       58.29700        0.79900
C         -1.39200       58.40400       -0.53900
C         -1.77400       59.68600       -1.28700
C          0.12800       58.34100       -0.32600
N         -5.56600       57.86900        2.26500
C         -6.46100       58.40300        3.30500
C         -7.34800       57.36200        3.99400
O         -7.39200       57.30200        5.22500
C         -7.34600       59.51400        2.71900
N         -8.07200       56.56700        3.21000
C         -8.95700       55.54000        3.75900
C         -8.48400       54.14400        3.34200
O         -8.24900       53.90300        2.15500
C        -10.38400       55.77100        3.26700
C        -11.45500       55.06200        4.07900
C        -12.82400       55.20100        3.41900
C        -13.95300       54.82300        4.36500
N        -15.13600       54.29000        3.63400
N         -8.34800       53.23600        4.31500
C         -8.02300       51.82600        4.03900
C         -9.12400       50.87300        4.51800
O         -9.52800       50.90700        5.68100
C         -6.71000       51.38100        4.71800
C         -6.49700       49.88600        4.52100
C         -5.53100       52.14900        4.16700
N         -9.59100       50.01500        3.61400
C        -10.52300       48.95400        3.95900
C         -9.70000       47.71900        4.28300
O         -8.90600       47.27900        3.45200
C        -11.46300       48.63200        2.79100
C        -12.33300       47.37100        2.91300
C        -13.12700       47.35200        4.22600
C        -13.26500       47.22800        1.72600
N         -9.89700       47.17600        5.48200
C         -9.38400       45.85500        5.82900
C        -10.53600       44.84900        5.68300
O        -11.53200       44.93600        6.40400
C         -8.81500       45.81000        7.25700
C         -7.67100       46.81800        7.41800
C         -8.32200       44.40100        7.56400
C         -7.03100       46.82200        8.79000
N        -10.39700       43.90600        4.74500
C        -11.52800       43.08300        4.29400
C        -11.52800       41.64500        4.81600
O        -12.50000       40.91400        4.61000
C        -11.61500       43.08900        2.76000
O        -10.75500       42.12500        2.18000
N        -10.43400       41.23700        5.46500
C        -10.33400       39.91900        6.08900
C        -10.02000       40.06500        7.57300
O         -9.75800       41.16900        8.05500
C         -9.25000       39.08900        5.39400
C         -9.69300       38.55700        4.02900
O        -10.92100       38.40100        3.78900
O         -8.80300       38.28600        3.19200
N        -10.07300       38.94900        8.29100
C         -9.82000       38.93400        9.73000
C         -8.31200       39.01100       10.03000
O         -7.59100       38.02800        9.86300
C        -10.44500       37.67000       10.34400
O        -10.50400       37.73500       11.75900
N         -7.84500       40.18400       10.45800
C         -6.43200       40.41700       10.78200
C         -6.24000       40.73200       12.26400
O         -7.20800       41.06400       12.97700
C         -5.87500       41.58500        9.96900
C         -5.71100       41.43600        8.45000
C         -4.50600       42.24700        8.00900
C         -5.52600       39.98000        8.02200
N         -4.99000       40.66700       12.71900
C         -4.66800       41.04600       14.09000
C         -5.10200       42.49700       14.28700
O         -4.96200       43.31000       13.36900
C         -3.16900       40.90400       14.38700
C         -2.83400       41.14900       15.86800
O         -2.75000       42.32400       16.31300
O         -2.66300       40.15600       16.59700
N         -5.62600       42.82900       15.48100
C         -6.07500       44.20300       15.67300
C         -4.95800       45.24200       15.57600
O         -5.25900       46.42400       15.47100
C         -6.66200       44.19200       17.09600
C         -6.89500       42.76400       17.41900
C         -5.85900       42.00600       16.68400
N         -3.69000       44.82200       15.62600
C         -2.59200       45.78900       15.62300
C         -2.43900       46.48700       14.27100
O         -1.93800       47.62200       14.20600
C         -1.27300       45.15100       16.05400
S         -0.52800       44.05600       14.85400
N         -2.87000       45.82000       13.20000
C         -2.84900       46.42000       11.87800
C         -3.62500       47.74200       11.90900
O         -3.05500       48.80100       11.64400
C         -3.44400       45.47000       10.84700
S         -3.24800       46.04800        9.15400
N         -4.90500       47.66400       12.26300
C         -5.76000       48.85400       12.40400
C         -5.14000       49.97400       13.24500
O         -5.14800       51.13300       12.83400
C         -7.11300       48.46800       13.00400
C         -8.10100       49.61300       13.11100
C         -9.48600       49.11600       13.49400
N         -9.51000       48.49300       14.81600
N         -4.61800       49.64000       14.42100
C         -4.08100       50.66200       15.33300
C         -2.88700       51.40100       14.71700
O         -2.79600       52.62700       14.80100
C         -3.68800       50.04100       16.68200
N         -1.98800       50.65100       14.08600
C         -0.81800       51.23500       13.42200
C         -1.20700       52.15000       12.26700
O         -0.68500       53.26700       12.15500
C          0.13900       50.15300       12.90300
C          0.89000       49.53000       14.08500
C          1.11800       50.75800       11.89000
C          1.44300       48.15700       13.80400
N         -2.12000       51.68600       11.41700
C         -2.65600       52.54400       10.35300
C         -3.20900       53.82300       10.97200
O         -2.89300       54.92800       10.53100
C         -3.77100       51.84700        9.56600
C         -3.46000       50.55700        8.80600
C         -4.71800       50.10400        8.09400
C         -2.32600       50.76000        7.82600
N         -4.02300       53.65600       12.00900
C         -4.66000       54.78400       12.68300
C         -3.64800       55.71900       13.34600
O         -3.82000       56.92900       13.31100
C         -5.71400       54.29700       13.68500
C         -7.02700       53.90100       13.01000
C         -8.02200       53.23500       13.94600
O         -7.72000       52.95900       15.10900
N         -9.22100       52.97000       13.43600
N         -2.58600       55.16200       13.92200
C         -1.50700       55.98600       14.48100
C         -0.73500       56.72200       13.38700
O         -0.28400       57.84300       13.59300
C         -0.54900       55.13200       15.31000
C         -1.18300       54.61700       16.58700
O         -0.58900       53.71100       17.21200
O         -2.27400       55.10700       16.96200
N         -0.58500       56.08100       12.22800
C          0.02800       56.72200       11.06200
C         -0.77300       57.89600       10.52300
O         -0.23400       58.73500        9.80500
N         -2.06100       57.93700       10.86700
C         -2.97000       59.00400       10.46300
C         -3.90900       58.59900        9.34300
O         -4.29200       59.43900        8.52800
N         -4.29000       57.32300        9.30800
C         -5.19000       56.80000        8.28100
C         -6.55100       56.44400        8.87000
O         -6.65800       56.10700       10.05100
C         -4.56700       55.57100        7.60400
C         -3.31800       55.87100        6.76800
C         -2.45200       54.64400        6.57100
C         -3.71900       56.46500        5.42700
N         -7.59100       56.54600        8.04500
C         -8.92100       56.05800        8.39900
C         -8.99200       54.58800        8.04100
O         -8.49000       54.17700        6.98900
C        -10.00600       56.81200        7.63200
C        -11.42400       56.30900        7.89100
N         -9.61700       53.79700        8.90900
C         -9.68900       52.35500        8.72000
C        -11.11800       51.83400        8.84800
O        -11.85400       52.22200        9.75300
C         -8.79300       51.60700        9.73100
C         -8.84700       50.11900        9.47900
C         -7.35800       52.11000        9.65800
N        -11.49300       50.94800        7.92900
C        -12.75900       50.22900        7.98600
C        -12.47500       48.73000        7.98700
O        -11.94400       48.20000        7.00700
C        -13.64200       50.57600        6.77300
C        -14.88100       49.68800        6.73200
C        -14.02200       52.04400        6.80700
N        -12.80700       48.05700        9.08900
C        -12.73300       46.60000        9.14100
C        -14.11200       46.01900        8.85300
O        -15.03400       46.16800        9.65000
C        -12.23500       46.10000       10.50100
C        -10.78300       46.43900       10.81200
C        -10.09900       45.39600       11.70600
O         -9.70500       44.32200       11.20100
O         -9.94200       45.65900       12.91400
N        -14.23800       45.36200        7.70500
C        -15.44700       44.63400        7.33500
C        -15.02700       43.33100        6.66700
O        -14.17800       43.33800        5.76800
C        -16.30800       45.46500        6.37600
C        -16.96600       46.68500        7.01000
N        -15.60900       42.21400        7.10200
C        -15.18900       40.89200        6.62900
C        -16.31600       40.14500        5.90800
O        -17.49100       40.49500        6.05000
C        -14.68500       40.06900        7.81500
C        -13.53300       40.72100        8.58100
C        -13.80700       40.81600       10.06700
O        -13.65700       39.83800       10.80700
N        -14.21100       41.99700       10.51600
N        -15.94400       39.12600        5.12400
C        -16.91000       38.22600        4.45600
C        -17.75100       38.89200        3.35500
O        -18.89900       38.49300        3.10700
C        -17.85200       37.58500        5.49100
C        -17.14600       37.23100        6.78300
O        -15.98800       36.81700        6.77200
N        -17.83500       37.40600        7.90300
N        -17.17800       39.89100        2.68900
C        -17.93200       40.70000        1.72600
C        -18.10300       39.96100        0.40300
O        -17.19500       39.24300       -0.03700
C        -17.22200       42.03500        1.47700
C        -17.05600       42.97700        2.67200
C        -15.91600       43.95300        2.42600
C        -18.34500       43.71800        2.97000
N        -19.26300       40.14700       -0.22900
C        -19.48300       39.67000       -1.59200
C        -18.69000       40.54600       -2.55900
O        -18.08300       41.53900       -2.15500
C        -20.97100       39.70500       -1.95200
O        -21.42800       41.03100       -2.18200
N        -18.69600       40.17600       -3.83400
C        -18.02200       40.98000       -4.85900
C        -18.59200       42.40300       -4.87500
O        -17.84600       43.37300       -4.73100
C        -18.16100       40.33600       -6.24700
C        -17.70800       38.87700       -6.31100
N        -19.91200       42.51300       -5.02500
C        -20.60700       43.81600       -5.08800
C        -20.38800       44.67500       -3.83300
O        -20.10600       45.87700       -3.93400
C        -22.10800       43.61100       -5.32300
N        -20.51400       44.04600       -2.66400
C        -20.23200       44.69300       -1.37800
C        -18.79800       45.20400       -1.25300
O        -18.56900       46.31400       -0.77700
C        -20.50400       43.72100       -0.23200
C        -21.96700       43.40200       -0.04300
C        -22.20000       42.40100        1.05800
O        -21.29200       41.59200        1.34000
O        -23.30000       42.42200        1.64500
N        -17.83200       44.38500       -1.66200
C        -16.42700       44.79100       -1.64300
C        -16.19900       46.03700       -2.51400
O        -15.53500       46.98400       -2.09400
C        -15.53900       43.63100       -2.11700
C        -14.02600       43.86200       -2.12600
C        -13.51100       44.12300       -0.72100
C        -13.31400       42.67600       -2.75500
N        -16.77800       46.03600       -3.71100
C        -16.63200       47.15900       -4.64700
C        -17.29300       48.44900       -4.12100
O        -16.77500       49.55200       -4.33600
C        -17.16500       46.77800       -6.05500
C        -16.27900       45.68500       -6.67100
C        -17.21600       48.00700       -6.97700
C        -16.74300       45.20000       -8.03500
N        -18.42300       48.30000       -3.42600
C        -19.11300       49.42600       -2.78100
C        -18.31500       50.03300       -1.61700
O        -18.24300       51.25400       -1.48000
C        -20.48100       48.98600       -2.29200
N        -17.73400       49.18100       -0.77200
C        -16.90300       49.65000        0.34400
C        -15.63900       50.34700       -0.15400
O        -15.18700       51.33500        0.42800
C        -16.50000       48.49000        1.25800
C        -17.63400       47.87300        2.06600
C        -18.32200       48.85900        2.99500
O        -17.63200       49.69000        3.62800
O        -19.56400       48.79300        3.09000
N        -15.07300       49.81500       -1.23300
C        -13.88200       50.39200       -1.84200
C        -14.09800       51.74300       -2.53000
O        -13.11900       52.38800       -2.89200
C        -13.27700       49.41700       -2.85500
C        -12.56400       48.21600       -2.23400
C        -12.13400       47.21500       -3.29800
C        -11.36800       48.69000       -1.42400
N        -15.34800       52.17300       -2.71400
C        -15.64100       53.40800       -3.45500
C        -14.87700       54.64100       -2.94600
O        -14.44500       55.48300       -3.74600
C        -17.15000       53.69900       -3.45000
N        -14.72600       54.73800       -1.62400
C        -14.00300       55.83800       -0.97600
C        -12.60400       55.42300       -0.49100
O        -11.96200       56.17400        0.24300
C        -14.81000       56.35200        0.22000
N        -12.12800       54.24800       -0.90900
C        -10.86400       53.68700       -0.40600
C         -9.74000       53.71500       -1.42200
O         -9.92000       53.32900       -2.57800
C        -11.04400       52.23700        0.02300
S        -12.16600       52.02300        1.37900
N         -8.56400       54.13700       -0.96400
C         -7.35700       54.10800       -1.78900
C         -6.44600       52.93600       -1.39100
O         -5.49600       52.61800       -2.11100
C         -6.62400       55.47900       -1.80600
C         -6.71200       56.37500       -0.54900
C         -7.74500       57.49700       -0.63900
O         -8.94100       57.21400       -0.86700
O         -7.36600       58.68100       -0.45900
N         -6.77500       52.29200       -0.27000
C         -6.04500       51.12900        0.21200
C         -6.95200       49.96300        0.59100
O         -8.03000       50.15000        1.16100
N         -6.51400       48.75300        0.26900
C         -7.21000       47.54200        0.68000
C         -6.19000       46.60600        1.29700
O         -5.09500       46.42000        0.74700
C         -7.89900       46.86200       -0.50600
C         -8.42300       45.42600       -0.36200
C         -9.59300       45.31800        0.63800
C         -8.82500       44.93400       -1.74200
N         -6.55800       46.03300        2.44100
C         -5.74900       45.02800        3.10800
C         -6.55100       43.72300        3.24000
O         -7.68000       43.72000        3.73800
C         -5.27400       45.52700        4.48100
C         -4.35000       46.73200        4.30000
C         -4.54700       44.41100        5.22300
C         -3.63000       47.17700        5.55400
N         -5.95000       42.63100        2.77100
C         -6.55600       41.30100        2.79000
C         -5.60600       40.32000        3.47400
O         -4.44200       40.63900        3.70100
C         -6.82600       40.79600        1.35200
C         -7.79700       41.74000        0.61700
C         -5.51800       40.68000        0.56000
N         -6.13100       39.14500        3.82700
C         -5.31200       37.98700        4.17900
C         -5.41200       37.02500        2.99200
O         -4.79600       37.29000        1.96500
C         -5.76300       37.37600        5.50400
C         -4.85400       36.25200        5.98000
C         -5.30000       35.70200        7.30500
N         -4.48700       34.54900        7.67300
C         -4.78500       33.70400        8.65100
N         -5.87300       33.86900        9.40100
N         -3.98300       32.68000        8.88900
N         -6.21400       35.96600        3.08400
C         -6.36500       35.00300        1.97900
C         -7.79400       34.87800        1.41400
O         -7.96400       34.57600        0.22600
C         -5.84700       33.62700        2.41600
O         -4.41900       33.61600        2.42100
N         -8.81300       35.10200        2.24400
C        -10.20300       34.84900        1.83600
C        -10.72900       35.83500        0.78500
O        -11.47100       35.45000       -0.11700
C        -11.13000       34.83400        3.06300
N        -10.35700       37.10500        0.90700
C        -10.79700       38.12400       -0.05600
C        -10.06100       37.96400       -1.37900
O         -8.83000       37.93800       -1.41700
C        -10.59500       39.55600        0.47800
O        -11.47900       39.77800        1.58000
C        -10.88900       40.59000       -0.59900
N        -10.82600       37.88200       -2.46100
C        -10.27600       37.62800       -3.78200
C        -10.24200       38.90700       -4.61200
O        -11.26000       39.33900       -5.17300
C        -11.08400       36.54500       -4.48100
C        -11.31000       35.31200       -3.62600
C        -10.00700       34.67600       -3.18000
C        -10.27000       33.34100       -2.52000
N         -9.01400       32.70900       -2.01500
N         -9.05300       39.50100       -4.67000
C         -8.84200       40.77400       -5.34700
C         -8.61200       40.49400       -6.83300
O         -7.49400       40.60700       -7.35900
C         -7.65400       41.57800       -4.75300
C         -7.59100       42.96200       -5.36600
C         -7.75300       41.67700       -3.22500
N         -9.71000       40.17200       -7.50700
C         -9.68600       39.74300       -8.89100
C         -9.56900       40.93700       -9.82800
O         -9.70100       42.09100       -9.41000
C        -10.97400       39.00500       -9.23800
O        -12.08100       39.90400       -9.08700
C        -11.17500       37.79100       -8.33600
N         -9.36600       40.65200      -11.10800
C         -9.30600       41.71000      -12.12500
C        -10.57500       42.56400      -12.11800
O        -10.51900       43.78200      -12.31400
C         -9.08400       41.10400      -13.49500
N        -11.72400       41.92900      -11.89600
C        -12.98700       42.66000      -11.85400
C        -13.00800       43.67000      -10.69900
O        -13.40800       44.81600      -10.89100
C        -14.17900       41.70000      -11.77600
C        -14.43800       40.98200      -13.09200
N        -12.56000       43.25700       -9.51500
C        -12.50600       44.16100       -8.35900
C        -11.53200       45.32500       -8.60400
O        -11.88500       46.48200       -8.42900
C        -12.11300       43.41800       -7.06700
C        -11.98400       44.40100       -5.90500
C        -13.14100       42.33500       -6.75400
N        -10.30700       44.99700       -9.00200
C         -9.28700       46.00200       -9.32500
C         -9.81600       47.06900      -10.29700
O         -9.67400       48.27000      -10.05500
C         -8.01400       45.30200       -9.90500
C         -7.27200       44.54200       -8.79400
C         -7.10100       46.31600      -10.61700
C         -6.53000       43.24800       -9.26200
N        -10.46800       46.62000      -11.37000
C        -10.94000       47.50700      -12.43900
C        -12.17600       48.34300      -12.08000
O        -12.40200       49.40800      -12.66700
C        -11.21000       46.70000      -13.71900
C         -9.93600       46.35600      -14.46900
O         -9.22700       47.24500      -14.92500
N         -9.65600       45.07300      -14.62300
N        -12.96700       47.86600      -11.12000
C        -14.13600       48.61200      -10.62500
C        -13.78700       49.56800       -9.47600
O        -14.55600       50.47300       -9.17200
C        -15.23400       47.64400      -10.18500
N        -12.63200       49.36700       -8.84300
C        -12.23900       50.13900       -7.65600
C        -11.44100       51.38600       -8.04800
O        -10.22100       51.31800       -8.24900
C        -11.43600       49.25300       -6.70100
N        -12.13700       52.52000       -8.09900
C        -11.66600       53.75400       -8.77100
C        -10.56100       54.54000       -8.06200
O         -9.67800       55.09300       -8.72000
C        -12.84400       54.70400       -9.03400
C        -13.33800       54.71400      -10.47500
C        -14.35800       55.80200      -10.73100
O        -14.12500       56.64700      -11.62500
O        -15.38700       55.82100      -10.02100
N        -10.63000       54.62100       -6.73700
C         -9.66600       55.39700       -5.95800
C         -8.52000       54.52200       -5.47000
O         -7.56100       55.03800       -4.89200
C        -10.34500       56.03300       -4.74600
C        -11.45000       57.00000       -5.08500
C        -12.04100       57.60800       -3.82400
N         -8.62200       53.21700       -5.71600
C         -7.68800       52.23500       -5.17900
C         -6.27900       52.39300       -5.75100
O         -6.08400       52.29500       -6.96400
C         -8.20200       50.80400       -5.43700
C         -7.47200       49.61400       -4.81300
C         -7.52100       49.60400       -3.28300
C         -8.06700       48.31900       -5.36600
N         -5.30700       52.60000       -4.85700
C         -3.90300       52.82200       -5.22500
C         -2.96100       51.70700       -4.72900
O         -1.93400       51.41900       -5.36200
C         -3.44700       54.18800       -4.69200
N         -3.28100       51.11000       -3.58400
C         -2.45700       50.01700       -3.06100
C         -3.29000       48.91400       -2.43100
O         -4.27300       49.16600       -1.74600
C         -1.42500       50.50800       -2.00400
C         -0.70500       49.30700       -1.38800
C         -0.43000       51.47600       -2.63500
N         -2.87400       47.67400       -2.68900
C         -3.42200       46.49200       -2.05200
C         -2.33100       45.85200       -1.18600
O         -1.21800       45.59800       -1.65500
C         -3.92600       45.46300       -3.10400
C         -4.38200       44.15800       -2.43200
C         -5.05700       46.04700       -3.93800
N         -2.64800       45.58400        0.07500
C         -1.74600       44.83400        0.95700
C         -2.27500       43.43500        1.28300
O         -3.45500       43.27700        1.59400
N         -1.40800       42.42200        1.22100
C         -1.75300       41.06600        1.64200
C         -0.96500       40.74700        2.91200
O          0.25800       40.88500        2.92300
C         -1.39400       40.06300        0.52600
C         -1.56800       38.57800        0.88200
C         -1.29500       37.68700       -0.31100
N         -0.76400       36.39000        0.12500
C         -1.48100       35.40100        0.64800
N         -2.79100       35.50900        0.83500
N         -0.87800       34.28600        1.00900
N         -1.65800       40.29400        3.96400
C         -1.01700       39.95600        5.24000
C         -0.63200       38.49400        5.22600
O         -1.17600       37.68400        5.96000
C         -1.94900       40.26300        6.40500
N          0.32300       38.18700        4.36100
C          0.83900       36.84300        4.15700
C          1.87000       36.88000        3.04600
O          2.15700       37.93100        2.47100
N          2.43000       35.73000        2.71100
C          3.45400       35.68400        1.68300
C          2.83800       35.47800        0.29500
O          1.70500       35.02200        0.15900
C          4.46000       34.58600        1.95800
O          3.80400       33.32100        1.87900
C          5.08800       34.76000        3.35900
N          3.59200       35.81100       -0.74100
C          3.09300       35.67100       -2.11700
C          1.89500       36.54800       -2.39100
O          1.61600       37.47100       -1.62600
N          1.19300       36.28300       -3.48900
C          0.07500       37.14900       -3.91800
C         -1.10200       36.29300       -4.36800
O         -1.82100       36.64300       -5.31100
C          0.47300       38.12600       -5.10300
C          1.36500       39.30100       -4.64700
C          1.12600       37.37800       -6.25700
N         -1.32600       35.18500       -3.67200
C         -2.21100       34.14300       -4.17600
C         -3.63900       34.59300       -4.44000
O         -4.25800       34.15300       -5.40700
C         -2.18700       32.95600       -3.22600
C         -0.79900       32.41000       -3.05400
O         -0.56300       31.25400       -3.47100
O          0.05500       33.15900       -2.51400
N         -4.14700       35.47100       -3.58900
C         -5.49900       36.03100       -3.76200
C         -5.56000       37.44500       -4.34900
O         -6.57800       38.12700       -4.21600
C         -6.22100       35.98900       -2.41200
C         -5.57900       36.89200       -1.39300
O         -4.35700       37.02800       -1.38200
N         -6.38500       37.51800       -0.53800
N         -4.48300       37.87300       -5.00900
C         -4.43100       39.15000       -5.69400
C         -3.99500       38.91700       -7.15000
O         -2.95700       38.30500       -7.40200
C         -3.45700       40.09400       -4.99400
C         -3.44400       41.46800       -5.70000
C         -3.81600       40.22300       -3.49500
N         -4.81200       39.37600       -8.09400
C         -4.43800       39.37700       -9.51900
C         -3.39800       40.48800       -9.73700
O         -3.72800       41.63000      -10.06000
C         -5.66900       39.57900      -10.41900
C         -5.36100       39.38300      -11.89900
O         -4.20500       39.65300      -12.31000
O         -6.29000       38.99800      -12.65900
N         -2.13700       40.12200       -9.53100
C         -1.01700       41.05600       -9.60400
C         -0.84300       41.60400      -11.01000
O         -0.44400       42.74900      -11.16600
C          0.27700       40.36100       -9.15300
C          1.56700       41.17400       -9.24500
C          1.47500       42.33000       -8.28800
C          2.75900       40.27800       -8.93000
N         -1.13000       40.79200      -12.02600
C         -1.06200       41.25400      -13.40800
C         -2.03600       42.40600      -13.60900
O         -1.64700       43.49100      -14.07500
C         -1.38100       40.12500      -14.38800
C         -1.29100       40.53400      -15.84700
C         -1.52900       39.38300      -16.81800
O         -1.33100       38.21500      -16.43000
O         -1.91100       39.65000      -17.97900
N         -3.29800       42.16500      -13.25700
C         -4.35200       43.19100      -13.34800
C         -3.96800       44.42300      -12.55900
O         -4.13000       45.53900      -13.03200
C         -5.70200       42.64700      -12.84600
N         -3.45200       44.23400      -11.35200
C         -3.06700       45.38700      -10.53000
C         -1.97600       46.22100      -11.22900
O         -2.07600       47.45900      -11.31000
C         -2.61800       44.92800       -9.12800
N         -0.96400       45.54700      -11.78200
C          0.19500       46.24100      -12.37600
C         -0.21300       47.03800      -13.62300
O          0.21000       48.19300      -13.82300
C          1.35000       45.24800      -12.68800
O          1.76600       44.61500      -11.47600
C          2.54400       45.97400      -13.29900
N         -1.08000       46.43100      -14.42800
C         -1.63300       47.08100      -15.62100
C         -2.40900       48.36200      -15.30200
O         -2.37200       49.31700      -16.08300
C         -2.54800       46.10500      -16.37700
C         -1.83700       44.87800      -16.93000
C         -2.75800       44.07100      -17.84300
N         -2.07700       42.93300      -18.46600
C         -1.16800       43.01200      -19.44200
N         -0.62600       41.89800      -19.92800
N         -0.78200       44.18400      -19.93900
N         -3.12400       48.37700      -14.17700
C         -3.89200       49.56700      -13.77100
C         -3.04100       50.53900      -12.95400
O         -3.46600       51.65500      -12.71500
C         -5.15600       49.20000      -12.98200
C         -6.28400       50.23900      -13.06100
C         -7.23100       50.14100      -11.87400
C         -8.36700       51.16800      -11.94100
N         -9.30500       50.99300      -10.78400
N         -1.84500       50.12500      -12.54100
C         -0.91800       51.01700      -11.83100
C         -1.13300       51.00800      -10.32800
O         -0.88400       52.00800       -9.64900
N         -1.59500       49.87800       -9.80700
C         -1.87300       49.74000       -8.38000
C         -0.72300       48.98500       -7.73900
O         -0.31000       47.94600       -8.23800
C         -3.21400       49.04100       -8.15600
C         -4.34200       49.96700       -8.60900
C         -3.36800       48.64400       -6.69800
C         -5.72300       49.38900       -8.50900
N         -0.18300       49.51700       -6.64500
C          0.92600       48.85200       -5.95900
C          0.41300       47.71400       -5.08600
O         -0.60000       47.85300       -4.41000
C          1.69900       49.84000       -5.09600
C          2.18600       51.07200       -5.85000
N          1.12500       46.58900       -5.11300
C          0.80900       45.46600       -4.25300
C          1.97300       45.20600       -3.28100
O          3.15400       45.17400       -3.67300
C          0.46700       44.20300       -5.06900
C          0.10100       43.03900       -4.15500
C         -0.68700       44.48600       -6.05700
N          1.61700       45.06400       -2.00500
C          2.56600       44.83600       -0.92900
C          2.14600       43.57700       -0.17400
O          0.96400       43.26800       -0.10500
C          2.56100       46.02600        0.01800
C          3.14400       47.29200       -0.59500
S          3.07200       48.69200        0.53300
C          1.31700       48.89200        0.73600
N          3.11500       42.84100        0.36400
C          2.81300       41.68700        1.21900
C          3.80500       41.60700        2.38700
O          4.58900       42.54800        2.60200
C          2.75200       40.40500        0.38500
C          4.05200       40.06300       -0.24600
O          5.02500       40.79000       -0.11800
N          4.08900       38.92200       -0.93800
N          3.76800       40.53100        3.15700
C          4.54400       40.47000        4.39200
C          5.47200       39.26300        4.36200
O          5.14400       38.21000        4.89700
C          3.63300       40.42100        5.61700
O          2.85600       39.22300        5.58800
C          2.71300       41.67000        5.65200
N          6.62600       39.41200        3.69700
C          7.55400       38.31200        3.53200
C          8.26100       37.82600        4.79000
O          8.87500       36.76700        4.74000
C          8.57700       38.86000        2.52800
C          8.53800       40.31500        2.70300
C          7.10700       40.63300        3.01800
N          8.19100       38.55300        5.90400
C          8.96700       38.15100        7.08400
C          8.14200       37.56800        8.23300
O          8.61400       36.68000        8.93700
C          9.79700       39.32700        7.56900
C         10.79200       39.77400        6.53500
O         11.59600       38.97300        6.07000
N         10.73300       41.03900        6.14800
N          6.91200       38.05400        8.40200
C          6.13900       37.80600        9.61300
C          5.76700       36.37800        9.92300
O          5.55400       36.05500       11.08300
N          5.70900       35.54100        8.88200
C          5.26100       34.13100        8.94600
C          6.34000       33.09700        9.00600
O          6.03300       31.91200        9.18000
C          4.45200       33.77700        7.67000
C          3.10000       34.34900        7.69700
O          2.58600       34.67800        8.77000
N          2.49200       34.49300        6.53600
N          7.58800       33.50000        8.81100
C          8.67900       32.54100        8.61500
C          8.82700       31.55300        9.75200
O          9.01900       30.37600        9.51600
C         10.00200       33.28600        8.42700
O          9.88300       34.21800        7.36400
N          8.80500       32.02900       10.98800
C          9.08000       31.13800       12.10400
C          7.92000       30.18400       12.34200
O          8.14000       29.03800       12.61300
C          9.46700       31.87300       13.39000
C         10.89300       32.43300       13.51700
C         11.04100       33.02800       14.92600
C         11.95600       31.36100       13.23200
N          6.68300       30.63200       12.20200
C          5.55700       29.71300       12.38600
C          5.51800       28.62600       11.29100
O          5.13400       27.47100       11.52800
C          4.24900       30.50900       12.44200
O          4.15800       31.17300       13.71300
N          5.89400       28.98300       10.06300
C          5.89400       28.01100        8.98500
C          7.01600       27.01600        9.18800
O          6.84200       25.82300        8.93500
C          6.06500       28.67600        7.62400
N          8.19900       27.49200        9.58600
C          9.32800       26.57100        9.91000
C          8.94200       25.59400       11.02500
O          9.16700       24.37000       10.91500
C         10.59500       27.38400       10.30800
N          8.29200       26.09400       12.06400
C          7.87000       25.23600       13.18500
C          6.86400       24.15600       12.73900
O          6.99800       22.98300       13.08200
C          7.35200       26.11500       14.34200
C          8.43800       26.90600       15.02200
C          7.93300       27.65500       16.25000
O          6.73200       27.49900       16.58800
O          8.68800       28.43400       16.84600
N          5.86300       24.52800       11.93600
C          4.90800       23.55200       11.42700
C          5.62000       22.47800       10.60200
O          5.33500       21.28100       10.71700
C          3.81600       24.18500       10.56600
C          2.64900       23.24700       10.21000
C          1.90300       22.84000       11.47900
C          1.67200       23.84400        9.21700
N          6.54100       22.89800        9.75200
C          7.28300       21.94500        8.90400
C          8.00300       20.90400        9.73800
O          7.95800       19.69900        9.45200
C          8.33100       22.71700        8.06100
O          7.66200       23.64800        7.21300
C          9.18400       21.75200        7.21700
N          8.66500       21.37600       10.79200
C          9.37500       20.48600       11.70600
C          8.38200       19.57500       12.40900
O          8.63700       18.39300       12.55900
C         10.17400       21.29000       12.72600
S         11.53300       22.25600       12.02500
N          7.23800       20.11200       12.82600
C          6.21800       19.27900       13.45000
C          5.77700       18.19900       12.46500
O          5.53300       17.05600       12.84900
N          5.60800       18.56700       11.20300
C          5.20800       17.60900       10.15300
C          5.19000       17.59000       10.19900
C          6.24500       16.49800        9.96400
O          5.90600       15.31600        9.80400
C          4.94600       18.33400        8.82100
C          4.76900       18.30100        8.91700
C          3.73200       19.22800        8.81800
C          3.49300       19.07400        9.11300
S          2.22100       18.28400        9.08600
S          2.94800       19.85600        7.61800
C          0.98000       19.45200        8.55500
C          1.22800       19.38800        7.63900
N          7.51900       16.85400        9.99200
C          8.59400       15.83600        9.89600
C          8.46700       14.79500       11.02900
O          8.50600       13.58300       10.79200
C          9.98400       16.52500        9.90400
C         10.17500       17.31200        8.58500
C         11.08100       15.48500       10.09400
C         11.30900       18.31400        8.58200
N          8.29700       15.27100       12.25800
C          8.12400       14.39500       13.43200
C          8.18200       14.37800       13.40900
C          6.90000       13.53900       13.31300
O          6.91000       12.37700       13.67500
C          7.95100       15.22200       14.70000
C          8.26000       15.17500       14.72700
C          9.06300       16.16200       15.03800
C          9.64000       15.84200       15.00400
S         10.67100       15.44200       14.85900
S          9.75300       16.92500       16.48600
C         10.49200       13.80000       15.62900
C          8.69000       18.28700       16.05600
N          5.81900       14.12000       12.82000
C          4.55200       13.38000       12.69200
C          4.69700       12.25000       11.68100
O          4.14200       11.15500       11.87300
C          3.41700       14.29800       12.29400
S          2.79000       15.33800       13.63900
N          5.43900       12.51200       10.60900
C          5.70900       11.48600        9.57900
C          6.63900       10.41000       10.09800
O          6.46800        9.19400        9.81900
C          6.31200       12.13200        8.33500
C          5.41100       12.97500        7.45000
C          6.26300       13.59700        6.33500
C          4.26800       12.11700        6.84900
N          7.64900       10.80500       10.85800
C          8.54200        9.79700       11.43500
C          7.85500        8.82500       12.40300
O          8.22900        7.64400       12.47600
C          9.71000       10.47400       12.13700
N          6.87700        9.31400       13.16600
C          6.28500        8.53200       14.27800
C          4.77500        8.27800       14.20800
O          4.20300        7.62600       15.09400
C          6.65700        9.18000       15.62000
C          8.16600        9.29000       15.84500
C          8.84200        7.92800       15.85500
N          8.69900        7.22300       17.12200
C          9.45900        7.46300       18.18300
N         10.38500        8.40800       18.12700
N          9.25300        6.79400       19.30000
N          4.16000        8.75200       13.13500
C          2.75100        8.53600       12.83400
C          1.83200        8.98600       13.96300
O          0.84300        8.32700       14.24000
C          2.55000        7.06400       12.50300
C          3.73900        6.50800       11.66200
C          3.43700        5.19900       11.02700
O          2.55500        5.11200       10.17700
N          4.17700        4.15700       11.41600
N          2.13900       10.14400       14.55800
C          1.39800       10.63700       15.70600
C         -0.08100       10.90100       15.33000
O         -0.97200       10.55900       16.09200
C          2.06400       11.91900       16.32100
C          3.51200       11.63600       16.79400
C          1.29800       12.40500       17.49800
C          4.32400       12.91600       17.08200
N         -0.34700       11.57600       14.18900
C         -1.77100       11.78700       13.82600
C         -2.57900       10.49400       13.65600
O         -3.72100       10.40100       14.09500
C         -1.68000       12.54200       12.48900
C         -0.34700       13.24700       12.55300
C          0.55400       12.26400       13.24300
N         -1.97500        9.48900       13.03300
C         -2.63900        8.20800       12.84400
C         -2.82500        7.45600       14.17100
O         -3.82300        6.74800       14.38700
C         -1.83000        7.36300       11.86200
C         -1.68200        8.00000       10.48000
C         -0.37000        8.69600       10.26500
O          0.15400        9.36600       11.15900
N          0.18200        8.55900        9.05300
N         -1.83100        7.58500       15.04400
C         -1.85000        6.97400       16.36400
C         -2.96600        7.55300       17.20700
O         -3.71900        6.81800       17.82800
C         -0.47800        7.14200       17.07300
N         -3.10500        8.87600       17.18800
C         -4.19400        9.53600       17.88600
C         -5.55500        9.06600       17.33700
O         -6.47000        8.80700       18.07900
C         -4.02800       11.04900       17.81000
O         -2.86300       11.44400       18.56200
C         -5.25300       11.81200       18.32600
N         -5.65500        8.92600       16.01800
C         -6.91800        8.53100       15.40900
C         -7.27500        7.11100       15.84200
O         -8.42000        6.78200       16.15600
C         -6.81200        8.65300       13.88000
N         -6.26400        6.25900       15.87600
C         -6.46900        4.86500       16.29500
C         -6.93200        4.77400       17.75400
O         -7.85200        4.03700       18.07200
C         -5.15300        4.10200       16.09700
O         -5.21200        2.79400       16.62000
N         -6.27600        5.51900       18.64000
C         -6.65300        5.57300       20.05600
C         -8.08500        6.08000       20.23700
O         -8.85200        5.52500       21.01000
C         -5.69800        6.50100       20.80600
C         -4.26600        5.97000       20.94100
S         -4.16600        4.57100       22.08600
C         -4.32800        5.37700       23.69200
N         -8.43800        7.13000       19.49800
C         -9.81000        7.69000       19.55200
C        -10.87200        6.72500       19.01800
O        -12.05700        6.78200       19.40600
C         -9.85800        9.05300       18.84800
C         -9.28800       10.15600       19.73200
C         -9.17600       11.47200       19.01800
C         -8.52400       12.50600       19.90500
N         -9.32100       12.90700       21.10000
N        -10.43200        5.79500       18.18500
C        -11.27700        4.71200       17.70000
C        -11.30200        3.51300       18.66300
O        -11.91800        2.47600       18.37100
C        -10.78900        4.29000       16.30900
C        -11.81200        3.48500       15.55300
O        -13.01900        3.79500       15.66700
O        -11.41800        2.52400       14.84600
N        -10.67000        3.65700       19.82900
C        -10.67300        2.63000       20.86800
C         -9.69100        1.49300       20.67500
O         -9.85400        0.43200       21.28200
N         -8.67700        1.69600       19.84500
C         -7.72700        0.65100       19.50100
C         -6.37700        0.87800       20.18300
O         -6.07400        2.00000       20.57700
C         -7.53600        0.61500       17.98800
C         -8.83000        0.27600       17.23700
C         -8.59100        0.16900       15.73100
C         -8.46600        1.51900       15.10100
N         -8.36600        1.51700       13.60400
N         -5.60400       -0.20600       20.32200
C         -4.25000       -0.19300       20.88300
C         -3.34800       -1.00400       19.93300
O         -3.16000       -2.22100       20.10500
C         -4.26500       -0.80500       22.30100
C         -2.94700       -0.72800       23.00900
C         -1.94800       -1.65000       22.98400
C         -2.49000        0.33900       23.84000
N         -0.89100       -1.22800       23.75900
C         -1.20000       -0.00600       24.29500
C         -3.05100        1.55300       24.25600
C         -0.45700        0.82500       25.13700
C         -2.31800        2.37200       25.09600
C         -1.03400        2.00000       25.53400
N         -2.82300       -0.32300       18.91900
C         -2.17400       -0.96800       17.76400
C         -0.70800       -0.58600       17.68300
O         -0.31600        0.19200       16.82900
C         -2.83100       -0.50800       16.45200
C         -4.33600       -0.45700       16.43300
C         -4.88000       -0.15900       15.03800
O         -5.19600        1.01600       14.73300
O         -4.98700       -1.11300       14.24100
N          0.12500       -1.14100       18.54700
C          1.51700       -0.70800       18.57500
C          2.27200       -1.03500       17.29700
O          2.94800       -0.18300       16.74900
C          2.26000       -1.36700       19.71500
C          1.67000       -1.12500       21.05500
C          2.51700       -1.82900       22.05900
N          3.49200       -0.94400       22.64800
C          4.65600       -1.31400       23.17500
N          5.08400       -2.57400       23.16300
N          5.41300       -0.38000       23.70600
N          2.17800       -2.28100       16.84300
C          3.03300       -2.73600       15.73300
C          2.86600       -1.88800       14.48500
O          3.84000       -1.54800       13.80800
C          2.73000       -4.18200       15.38700
C          2.48400       -5.07200       16.59000
N          1.61900       -1.53000       14.20100
C          1.27300       -0.70900       13.05000
C          2.03200        0.61200       13.00100
O          2.32100        1.13100       11.91900
C         -0.23800       -0.44200       13.05700
C         -0.74100        0.40300       11.92200
C         -2.24800        0.37500       11.81800
C         -2.73900        1.34300       10.74100
N         -4.20400        1.20200       10.46500
N          2.35100        1.16900       14.16700
C          2.91900        2.50600       14.22700
C          4.41200        2.52000       14.53800
O          4.96500        3.53500       14.97600
C          2.12600        3.37100       15.21100
C          0.67700        3.49500       14.84600
C          0.31300        4.06100       13.63600
C         -0.30900        3.01400       15.68100
C         -1.02800        4.15700       13.26400
C         -1.65500        3.10400       15.33000
C         -2.01200        3.67800       14.12600
N          5.08500        1.41800       14.24400
C          6.53000        1.39500       14.31600
C          7.07600        2.49000       13.40100
O          6.67000        2.62700       12.23800
C          7.05800        0.01200       13.90800
C          8.55200       -0.24200       14.18300
S          9.02400       -0.32600       15.93000
C          7.68800       -1.23600       16.65300
N          7.98900        3.27400       13.94200
C          8.48700        4.47200       13.29500
C          9.97800        4.47900       13.03400
O         10.66500        3.42700       13.04100
N         10.44500        5.69300       12.75700
C         11.82600        6.00000       12.39500
C         12.43000        7.05100       13.32400
O         11.82500        8.06300       13.60700
C         11.88700        6.55400       10.95900
O         11.22200        5.63300       10.09600
C         13.32700        6.69000       10.50000
N         13.65000        6.79700       13.76600
C         14.41900        7.70300       14.57200
C         15.15800        8.63400       13.64100
O         15.75700        8.18900       12.65600
C         15.38200        6.91000       15.43200
C         16.15300        7.64100       16.48000
C         17.02500        6.69000       17.26400
O         16.53900        6.11500       18.29300
O         18.19400        6.45100       16.84400
N         15.06400        9.93000       13.92300
C         15.61000       10.96100       13.06200
C         17.13100       11.08100       13.09800
O         17.73700       11.47000       12.10100
C         14.99800       12.31300       13.40800
C         13.49800       12.45800       13.15800
C         13.09700       13.85200       13.54600
C         13.15300       12.18600       11.67200
N         17.73600       10.80500       14.24800
C         19.16400       10.94100       14.40000
C         19.87300       10.14300       13.32200
O         19.63600        8.94400       13.19300
C         19.62600       10.43200       15.77800
C         21.07500       10.75700       16.05800
O         21.55700       11.83600       15.69800
N         21.79700        9.82400       16.68500
N         20.74500       10.82400       12.58400
C         21.53600       10.22200       11.53200
C         20.90200       10.20500       10.15400
O         21.61000        9.92200        9.17300
N         19.59200       10.44200       10.07500
C         18.86300       10.48700        8.81200
C         19.18100       11.77900        8.02500
O         19.60800       12.78800        8.58800
C         17.36400       10.37900        9.04600
C         16.89000        9.14300        9.77100
C         17.47400        7.85100        9.22700
C         16.89900        6.62300        9.93400
N         17.50800        6.43700       11.27700
N         18.95800       11.74300        6.72000
C         19.24700       12.89000        5.84900
C         17.95500       13.60500        5.45700
O         16.99000       12.98000        5.03800
C         20.00700       12.45300        4.60800
O         21.31300       11.99900        4.99000
C         20.14400       13.61600        3.64600
N         17.92600       14.92100        5.65900
C         16.81100       15.77100        5.28800
C         17.28100       16.60900        4.10100
O         18.33200       17.24500        4.17000
C         16.42600       16.68600        6.45900
C         15.41500       17.78100        6.17800
C         14.10600       17.13000        5.73100
C         15.19600       18.71000        7.39000
N         16.56600       16.52200        2.98500
C         16.81800       17.37600        1.81900
C         15.88000       18.58100        1.88000
O         14.66600       18.41600        2.09900
N         16.43500       19.78100        1.72600
C         15.71400       21.03800        1.83800
C         15.86100       21.79600        0.51800
O         16.96000       22.26600        0.16800
C         16.25200       21.93700        3.01700
C         16.27600       21.13800        4.33000
C         15.42600       23.25400        3.10900
C         16.87600       21.84400        5.48200
N         14.75500       21.92900       -0.21100
C         14.75300       22.62200       -1.51800
C         14.15600       24.00000       -1.28800
O         12.94700       24.12200       -1.00500
C         13.92900       21.85700       -2.55800
C         14.28000       20.35500       -2.72100
C         13.54000       19.67900       -3.88000
C         15.75600       20.16100       -2.86900
N         14.99400       25.02500       -1.41000
C         14.61900       26.39500       -1.05300
C         15.27600       26.69700        0.28200
O         14.94000       26.08100        1.29800
N         16.29300       27.55600        0.24200
C         17.13000       27.82200        1.39500
C         17.08100       29.28500        1.77900
O         18.10500       29.89300        2.13400
C         18.56100       27.32900        1.14700
C         18.74800       25.82800        0.80500
C         20.20500       25.52300        0.40600
C         18.27900       24.88600        1.93000
N         15.88300       29.84600        1.71000
C         15.64700       31.25100        2.03800
C         15.19100       31.35500        3.47400
O         15.71600       30.67300        4.33200
N         14.19000       32.18900        3.74600
C         13.84200       32.50700        5.13100
C         13.45600       31.26000        5.90000
O         13.93300       31.02400        7.01200
C         12.69500       33.52400        5.18900
C         13.06000       34.93900        4.77600
C         11.82100       35.80200        4.67500
N         12.06700       37.18300        4.23200
C         12.23300       37.55600        2.96600
N         12.26300       36.67000        1.97800
N         12.41200       38.83500        2.67900
N         12.57000       30.45800        5.32700
C         12.06500       29.27200        6.04200
C         13.00100       28.05400        5.96300
O         13.15200       27.33200        6.95400
C         10.62500       28.92100        5.58600
C          9.66900       30.05400        5.99000
C         10.16800       27.61000        6.20800
C          8.30000       30.03900        5.25400
N         13.58000       27.79600        4.80000
C         14.44700       26.64300        4.64000
C         15.55500       26.60600        5.67300
O         15.83100       25.56900        6.28100
N         16.18000       27.74000        5.89900
C         17.30900       27.79600        6.81400
C         16.87800       27.60000        8.26800
O         17.63600       27.07400        9.07400
C         18.06100       29.10100        6.65100
C         17.38300       30.37300        7.08100
C         18.20900       31.58500        6.63400
N         18.38100       31.66300        5.18300
C         19.29200       32.40800        4.55200
N         20.16300       33.15500        5.21900
N         19.33700       32.39600        3.22500
N         15.65800       28.01100        8.59700
C         15.16400       27.86200        9.96800
C         14.79700       26.41600       10.24700
O         15.02100       25.91300       11.36400
C         13.95900       28.76500       10.22400
C         14.27000       30.22500       10.12500
C         15.27500       30.74400       11.16800
O         15.55400       30.09000       12.20100
O         15.80700       31.85300       10.94000
N         14.21000       25.76700        9.25100
C         13.94600       24.33100        9.32100
C         15.27700       23.56200        9.49700
O         15.38800       22.64600       10.34700
C         13.22600       23.80900        8.07000
C         13.16200       22.28700        8.09800
C         11.80000       24.37300        7.98300
N         16.28400       23.95700        8.73600
C         17.59400       23.25600        8.78000
C         18.19200       23.27000       10.19700
O         18.57900       22.24200       10.74200
C         18.56600       23.90700        7.77700
N         18.22300       24.44100       10.83000
C         18.92900       24.54200       12.13200
C         18.19100       23.80900       13.25200
O         18.79900       23.25800       14.14500
C         19.21600       25.97800       12.52100
O         17.99500       26.69100       12.70900
C         20.09300       26.69000       11.44300
N         16.86700       23.77300       13.15800
C         16.05600       23.00800       14.07700
C         16.25300       21.51000       13.88800
O         16.48000       20.77800       14.84700
C         14.58800       23.42500       13.91700
C         14.29000       24.78000       14.57900
C         13.05300       25.46900       14.02100
N         12.85300       26.78500       14.60600
C         13.64000       27.83700       14.37500
N         14.65400       27.75200       13.51200
N         13.40100       29.01000       14.94800
N         16.22300       21.03200       12.65500
C         16.34700       19.59000       12.43800
C         17.77300       19.11200       12.64000
O         17.98500       17.98000       13.00100
C         15.77900       19.18100       11.07600
C         14.25100       19.47800       10.89700
S         13.25700       19.14000       12.37900
C         13.47600       17.38400       12.47900
N         18.74200       20.00700       12.53900
C         20.13400       19.69300       12.85900
C         20.27600       19.31700       14.32100
O         21.12900       18.49600       14.67500
C         21.02800       20.88900       12.56500
C         21.43200       21.01700       11.09100
C         21.82900       22.41500       10.71500
O         22.16600       23.24300       11.58100
N         21.75100       22.72100        9.42100
N         19.47400       19.93400       15.18000
C         19.50500       19.62900       16.62300
C         19.05900       18.19900       16.92200
O         19.33700       17.66300       17.99800
C         18.65900       20.62700       17.43200
O         17.26700       20.28500       17.42700
N         18.32900       17.59300       15.98900
C         17.94500       16.18900       16.09300
C         19.00200       15.26300       15.50500
O         18.81300       14.05800       15.49600
C         16.61700       15.91700       15.37800
C         15.42600       16.49300       16.07300
C         14.58900       15.67300       16.81800
C         15.14100       17.83100       15.98500
C         13.49800       16.19400       17.47400
C         14.02900       18.38100       16.65500
C         13.20500       17.55200       17.38400
N         20.12200       15.80100       15.04200
C         21.15900       14.94600       14.47600
C         20.91300       14.58900       13.01800
O         21.55600       13.68900       12.50800
N         19.97300       15.26200       12.36200
C         19.77200       15.08100       10.91500
C         20.88200       15.75700       10.14400
O         21.35100       16.83100       10.50600
C         18.40900       15.58700       10.42300
C         17.22000       15.04900       11.19600
S         15.62900       15.24600       10.37400
C         15.65200       13.83000        9.23800
N         21.27400       15.10100        9.06000
C         22.14000       15.68200        8.06300
C         21.22200       16.47400        7.17300
O         20.16100       15.95700        6.79700
C         22.86500       14.57300        7.29200
C         23.93300       13.85000        8.10000
C         24.66600       12.81000        7.27800
C         25.77800       12.18000        8.09900
N         26.32600       10.85800        7.56700
N         21.56400       17.73400        6.91500
C         20.70000       18.61000        6.14400
C         21.45600       18.96400        4.86700
O         22.51300       19.60700        4.90500
C         20.25200       19.85600        6.95100
O         21.40200       20.49500        7.52800
C         19.30700       19.46900        8.07700
N         20.92500       18.48400        3.74500
C         21.43700       18.79500        2.42600
C         20.34000       19.55300        1.67400
O         19.19000       19.54900        2.09800
C         21.90200       17.55100        1.65700
C         20.73900       16.58400        1.35700
C         23.03300       16.84800        2.46800
C         21.08700       15.39800        0.45600
N         20.69200       20.21800        0.57400
C         19.65600       20.89500       -0.17100
C         20.15700       21.62100       -1.38900
O         21.29200       21.40500       -1.85900
N         19.29300       22.48500       -1.90400
C         19.54200       23.17700       -3.15700
C         18.78800       24.49300       -3.21800
O         17.62600       24.56000       -2.83500
C         19.11900       22.27800       -4.30900
C         19.23800       22.97700       -5.62700
C         20.48400       23.26700       -6.16400
C         18.09600       23.40500       -6.30700
C         20.60700       23.93400       -7.38100
C         18.20000       24.07200       -7.51600
C         19.45200       24.34300       -8.04100
O         19.52600       25.01700       -9.24700
N         19.44500       25.52900       -3.74900
C         18.80600       26.82400       -3.96200
C         19.63100       27.50000       -5.04300
O         20.84600       27.62100       -4.88400
C         18.85000       27.65700       -2.68800
C         18.02400       28.93000       -2.77400
O         18.22400       29.72200       -3.72600
O         17.20400       29.16700       -1.85500
N         18.99300       27.93300       -6.13400
C         19.75600       28.51700       -7.23600
C         20.44300       29.84800       -6.94000
O         21.32200       30.24700       -7.71100
C         18.69900       28.69500       -8.34200
C         17.41000       28.75700       -7.63800
C         17.55100       27.90000       -6.42100
N         20.03800       30.54900       -5.88400
C         20.59700       31.87400       -5.58200
C         21.45700       31.93200       -4.31900
O         22.21600       32.88800       -4.13600
C         19.49100       32.95900       -5.49100
C         18.75800       33.11100       -6.83100
C         20.09300       34.30700       -5.12600
C         19.63500       33.42400       -8.00300
N         21.36400       30.91700       -3.46400
C         22.19100       30.84500       -2.25800
C         23.43300       30.00100       -2.58600
O         23.33000       28.87200       -3.07200
C         21.41400       30.23600       -1.07200
C         20.10300       30.99600       -0.80700
C         22.25600       30.18500        0.18900
C         20.30800       32.41700       -0.37700
N         24.60000       30.56700       -2.33700
C         25.85900       29.88700       -2.63400
C         26.08000       28.77500       -1.64300
O         25.60700       28.85400       -0.52800
C         27.04500       30.84600       -2.57700
O         27.39700       31.15900       -1.24600
N         26.82800       27.73600       -2.05000
C         27.19100       26.65800       -1.14100
C         27.92200       27.12000        0.13200
O         27.74900       26.50600        1.18700
C         28.08800       25.76700       -2.00800
C         27.65700       26.04000       -3.39300
C         27.35000       27.49300       -3.40700
N         28.70700       28.19500        0.02600
C         29.37100       28.80600        1.17700
C         28.42000       29.46900        2.14300
O         28.59500       29.38600        3.35700
C         30.38600       29.85500        0.72900
C         31.78100       29.49000        1.00600
C         32.72900       30.54800        0.50400
O         33.40300       31.17000        1.35500
O         32.78400       30.76000       -0.73300
N         27.39800       30.13600        1.61900
C         26.41100       30.72200        2.49600
C         25.57900       29.64100        3.18100
O         25.35700       29.70200        4.39500
C         25.50400       31.68200        1.75100
C         24.31000       32.08400        2.63500
C         26.30800       32.89900        1.33200
N         25.13000       28.63600        2.43000
C         24.31500       27.58600        3.02900
C         25.15200       26.79400        4.02600
O         24.61400       26.30100        5.01800
C         23.67700       26.67600        1.98700
O         24.66400       25.94700        1.29100
N         26.46100       26.69000        3.78100
C         27.34600       26.01000        4.72200
C         27.30700       26.67900        6.08500
O         27.41000       26.01600        7.10900
C         28.78200       25.98000        4.20000
N         27.16500       28.00300        6.08700
C         27.12400       28.75900        7.32600
C         25.92100       28.49300        8.22700
O         26.00800       28.77600        9.41900
C         27.27100       30.26400        7.04600
O         26.09300       30.79500        6.47500
N         24.81700       27.96800        7.67300
C         23.69300       27.45600        8.48400
C         23.54200       25.93200        8.35200
O         22.48700       25.35100        8.55500
C         22.37600       28.22400        8.25700
C         21.96300       28.37900        6.83200
C         21.28200       27.36900        6.17700
C         22.19700       29.57200        6.15400
C         20.85200       27.52700        4.86000
C         21.76600       29.73900        4.83200
C         21.09200       28.70500        4.19000
N         24.64400       25.28100        8.03600
C         24.71400       23.84200        8.11300
C         24.06900       23.04600        7.00700
O         23.81700       21.85000        7.19600
N         23.78900       23.67000        5.86500
C         23.16000       22.94500        4.76100
C         24.14700       22.75000        3.62000
O         24.71800       23.71900        3.05900
C         21.82800       23.58500        4.27000
C         21.26000       22.79500        3.07300
C         20.80800       23.63300        5.40700
N         24.38400       21.48500        3.29600
C         25.29800       21.11800        2.22500
C         24.58100       21.14000        0.88100
O         23.64100       20.37400        0.63500
C         25.91700       19.75100        2.47500
C         26.80400       19.28400        1.40100
C         27.25900       17.83400        1.53200
O         26.62700       17.00500        2.21000
N         28.35800       17.52300        0.86500
N         24.99800       22.03900        0.00300
C         24.37000       22.06400       -1.30500
C         25.00600       21.09600       -2.27400
O         26.23600       20.99000       -2.37000
C         24.32900       23.45500       -1.89600
C         23.25600       24.29600       -1.26700
C         23.08400       25.58000       -1.98700
O         22.45600       25.61600       -3.04800
N         23.64600       26.64900       -1.43800
N         24.13100       20.44700       -3.03600
C         24.51800       19.53300       -4.07300
C         23.51400       19.71900       -5.20800
O         22.42700       20.27500       -4.99300
C         24.45000       18.08300       -3.58200
C         25.17000       17.73400       -2.27800
C         24.73600       16.36600       -1.75900
C         26.65100       17.78400       -2.48400
N         23.86200       19.22900       -6.40200
C         22.93200       19.24900       -7.53300
C         21.71600       18.41500       -7.21800
O         21.84100       17.42100       -6.51500
C         23.73600       18.58200       -8.65600
C         25.14100       18.62200       -8.23300
C         25.14900       18.61700       -6.75200
N         20.54500       18.81100       -7.71200
C         19.32200       18.05400       -7.45600
C         19.47200       16.55800       -7.67400
O         19.01200       15.76000       -6.85800
C         18.16500       18.57300       -8.32400
C         17.34800       19.75500       -7.81300
C         16.20400       20.05200       -8.80500
C         16.79900       19.54300       -6.37700
N         20.13500       16.16700       -8.76400
C         20.20500       14.74800       -9.09800
C         20.28200       14.75300       -9.14400
C         20.95700       13.95700       -8.03900
O         20.67500       12.77200       -7.84800
C         20.78100       14.52400      -10.49500
C         21.11600       14.57900      -10.42700
C         22.28600       14.52900      -10.60600
C         21.06400       15.71900      -11.43900
C         22.74000       14.26500      -12.03100
C         22.04600       16.83300      -11.12000
O         21.98300       14.61600      -12.95600
O         23.25700       16.54800      -11.00000
O         23.84200       13.70200      -12.23700
O         21.60600       17.99400      -10.98800
N         21.88000       14.61100       -7.33500
C         22.61500       13.96700       -6.25100
C         21.83100       13.92200       -4.94900
O         22.15500       13.13500       -4.06600
C         23.95000       14.67100       -6.03300
C         24.99700       14.34600       -7.10900
C         26.32600       15.02000       -6.84000
O         26.75100       15.06600       -5.66400
O         26.94800       15.51800       -7.79600
N         20.81100       14.77100       -4.83500
C         19.99400       14.87300       -3.61900
C         19.00600       13.71700       -3.48600
O         18.96700       13.04300       -2.43700
C         19.26200       16.25700       -3.53700
C         20.30600       17.36400       -3.32000
C         18.18900       16.25100       -2.43400
C         19.73000       18.75500       -3.36800
N         18.21200       13.47900       -4.52900
C         17.12700       12.51100       -4.44700
C         17.56700       11.19000       -3.79900
O         16.94200       10.76300       -2.85400
C         16.47700       12.23300       -5.81500
C         16.10400       13.44100       -6.59700
C         16.58800       13.80000       -7.81300
C         15.16700       14.46600       -6.22100
N         16.00000       14.96700       -8.23000
C         15.12300       15.39600       -7.27700
C         14.34000       14.66700       -5.11200
C         14.32400       16.53300       -7.23700
C         13.53900       15.78300       -5.07300
C         13.52700       16.70700       -6.13200
N         18.66100       10.55900       -4.28600
C         19.04500        9.25700       -3.73100
C         19.50200        9.28300       -2.27400
O         19.53300        8.21900       -1.64600
C         20.22400        8.81800       -4.61900
C         20.14800        9.68100       -5.80900
C         19.58400       10.96800       -5.35600
N         19.85000       10.46200       -1.74100
C         20.39600       10.54900       -0.37900
C         19.33900       10.74200        0.70700
O         19.62600       10.48800        1.88300
C         21.40600       11.69300       -0.26100
C         22.64400       11.64700       -1.13300
C         23.48100       12.87000       -0.89200
C         23.44500       10.40900       -0.85300
N         18.12700       11.15700        0.34100
C         17.18600       11.66600        1.33100
C         16.28900       10.63900        1.96800
O         15.73100        9.78400        1.29800
C         16.29400       12.73600        0.74300
S         17.18600       14.16900        0.28100
N         16.15300       10.74000        3.28600
C         15.13600        9.99100        4.00400
C         13.86900       10.86500        4.07100
O         12.75300       10.37400        4.04800
C         15.67100        9.63800        5.38800
C         16.93600        8.83000        5.30600
O         16.88000        7.72100        4.73200
O         18.01500        9.30900        5.73500
N         14.06400       12.16700        4.19400
C         12.97100       13.14200        4.19400
C         13.28600       14.26000        3.21300
O         14.46200       14.62400        3.05600
C         12.78300       13.76900        5.59000
C         12.32400       12.79500        6.64000
C         11.00700       12.77500        7.06700
C         13.21900       11.88800        7.20400
C         10.59700       11.85800        8.02900
C         12.81300       11.01900        8.17600
C         11.49700       10.98800        8.56000
N         12.26300       14.76900        2.52800
C         12.42700       15.93200        1.63600
C         11.38200       16.96500        1.98900
O         10.23400       16.61100        2.19500
C         12.27300       15.54800        0.16800
C         13.28500       14.46600       -0.20000
C         12.46700       16.80200       -0.72300
C         13.11800       13.85700       -1.60000
N         11.79600       18.22400        2.09500
C         10.88200       19.30200        2.40300
C         11.12700       20.45500        1.41600
O         12.25500       20.69800        1.03700
C         10.96000       19.73500        3.89300
O          9.95800       20.72600        4.12900
C         12.31600       20.31500        4.23300
N         10.04700       21.10800        0.95500
C         10.15200       22.18700       -0.01900
C          9.78400       23.53900        0.58100
O          8.80700       23.66500        1.31400
C          9.32900       21.92900       -1.29400
C          9.85700       20.66900       -2.01200
C          7.82800       21.76100       -0.97300
N         10.60900       24.54800        0.28500
C         10.41000       25.89300        0.80300
C         10.76000       26.92000       -0.26600
O         11.53600       27.83900       -0.03700
C         11.20400       26.08900        2.10400
C         10.86700       25.08600        3.15700
N          9.69500       25.13300        3.88100
C         11.48600       23.94300        3.52400
C          9.63300       24.09800        4.68800
N         10.70300       23.34700        4.48200
N         10.17600       26.72400       -1.45300
C         10.33000       27.63400       -2.59100
C          9.03600       28.42300       -2.83000
O          7.97100       28.00100       -2.40900
C         10.67400       26.83000       -3.88900
O          9.55000       26.05000       -4.32000
C         11.90100       25.91000       -3.68100
N          9.12100       29.53600       -3.57200
C          7.91400       30.09100       -4.16200
C          7.36000       29.12500       -5.18800
O          8.04800       28.17200       -5.56500
C          8.41400       31.36200       -4.84800
C          9.86200       31.14100       -5.04300
C         10.31700       30.31800       -3.93400
N          6.12700       29.35300       -5.60500
C          5.54600       28.63100       -6.73200
C          5.85300       29.41900       -8.01200
O          5.36600       30.53100       -8.20200
C          4.03700       28.43400       -6.54100
C          3.29200       27.63300       -7.62600
C          3.69300       26.17200       -7.64800
C          1.76900       27.76500       -7.47300
N          6.66700       28.81100       -8.87600
C          7.17100       29.41400      -10.10300
C          7.15700       28.33400      -11.18500
O          6.97400       27.16200      -10.89600
C          8.61700       29.88300       -9.91900
C          8.94900       30.87900       -8.81900
C         10.46400       30.92400       -8.62600
C          8.38300       32.26400       -9.12900
N          7.31600       28.72800      -12.45100
C          7.55000       27.70400      -13.47300
C          8.67800       26.73200      -13.13700
O          8.53800       25.53100      -13.36000
C          7.88400       28.54000      -14.72000
C          7.09700       29.79300      -14.51800
C          7.22100       30.08000      -13.03100
N          9.77500       27.23400      -12.57600
C         10.90700       26.41600      -12.21600
C         10.58900       25.45100      -11.05500
O         11.28500       24.44400      -10.87300
C         12.12400       27.30400      -11.88400
O         12.29400       27.52200      -10.49000
N          9.54000       25.75100      -10.27500
C          9.20900       24.93200       -9.09600
C          7.89100       24.15500       -9.14800
O          7.60400       23.39000       -8.22300
C          9.24300       25.80100       -7.81300
O          8.22200       26.80200       -7.87400
C         10.61000       26.46100       -7.64200
N          7.09000       24.32000      -10.19500
C          5.83300       23.60100      -10.30300
C          6.20300       22.17300      -10.69800
O          6.82800       21.97000      -11.73300
C          4.87800       24.27100      -11.30400
O          4.54000       25.58300      -10.83600
C          3.60600       23.50100      -11.41900
N          5.85200       21.19700       -9.86100
C          6.18700       19.79700      -10.14000
C          7.68500       19.53900       -9.99000
O          8.26200       18.71900      -10.71900
N          8.31400       20.26600       -9.07700
C          9.72400       20.06100       -8.72100
C          9.94800       18.60500       -8.28700
O         10.91700       17.96100       -8.71300
C         10.14800       21.02600       -7.61200
C         11.64100       21.18700       -7.30000
C         12.42500       21.49700       -8.58200
C         11.87500       22.28500       -6.25800
N          9.03000       18.08600       -7.47400
C          8.87800       16.63700       -7.27900
C          7.78600       16.10300       -8.19200
O          6.66700       16.61200       -8.22600
C          8.54600       16.26700       -5.83200
C          9.69300       16.31500       -4.82900
C         10.10700       17.77700       -4.59000
C          9.27800       15.64900       -3.52000
N          8.11300       15.05900       -8.94300
C          7.23700       14.55000       -9.96300
C          7.55900       13.05900      -10.12900
O          8.39600       12.54300       -9.38300
C          7.49900       15.31200      -11.26300
C          8.96000       15.25800      -11.66800
O          9.48600       14.17700      -11.90600
N          9.61800       16.41300      -11.74100
N          6.92500       12.38300      -11.08600
C          7.09700       10.91900      -11.21500
C          8.56200       10.51300      -11.39400
O          9.00900        9.48700      -10.85300
C          6.28800       10.35000      -12.36200
C          4.81200       10.24300      -12.05200
O          4.43500        9.59100      -11.05800
O          4.02600       10.78600      -12.84400
N          9.30400       11.33600      -12.13300
C         10.70800       11.05500      -12.40100
C         11.60000       11.23100      -11.19400
O         12.54900       10.47900      -11.03000
C         11.22800       11.94200      -13.54400
C         10.38500       11.83000      -14.78200
O          9.81000       12.81400      -15.24300
N         10.28900       10.62000      -15.33300
N         11.35700       12.25200      -10.38100
C         12.20900       12.46800       -9.20500
C         11.86500       11.45400       -8.12400
O         12.76500       10.96400       -7.45300
C         12.09500       13.89000       -8.65200
O         10.74300       14.11300       -8.26400
C         12.51300       14.88400       -9.73600
N         10.59100       11.07700       -8.00600
C         10.22800        9.99300       -7.07900
C         10.94900        8.69300       -7.41000
O         11.32600        7.96900       -6.50100
C          8.72100        9.76400       -7.01300
C          8.01400       10.70300       -6.06000
C          8.25100       10.62700       -4.69600
C          7.10400       11.64800       -6.52100
C          7.60200       11.49400       -3.81300
C          6.44600       12.50000       -5.63900
C          6.68700       12.41100       -4.28800
N         11.16700        8.40800       -8.69300
C         11.84700        7.17100       -9.09000
C         13.35200        7.20700       -8.76500
O         14.00900        6.17000       -8.76000
C         11.62600        6.87900      -10.57700
N         13.88900        8.40500       -8.55200
C         15.28800        8.60300       -8.16700
C         15.50700        8.59100       -6.64700
O         16.64100        8.57200       -6.18000
C         15.76900        9.95100       -8.70300
C         16.01200        9.94900      -10.17500
C         16.33100       11.32100      -10.66300
O         17.47600       11.76100      -10.60500
N         15.31600       12.02300      -11.13700
N         14.41300        8.65700       -5.89200
C         14.46000        8.72200       -4.42700
C         14.63900        7.33200       -3.83800
O         14.41600        6.33500       -4.52600
C         13.17000        9.32800       -3.88100
S         13.01500       11.09900       -4.12200
N         15.01700        7.27400       -2.55800
C         15.01500        6.01400       -1.81100
C         13.59700        5.48900       -1.70900
O         12.64800        6.27700       -1.54300
C         15.48100        6.22200       -0.37600
C         16.90800        6.57000       -0.18700
C         17.21300        6.53200        1.32900
C         18.62000        6.96700        1.63200
N         18.95100        6.80900        3.08800
N         13.46400        4.17500       -1.79000
C         12.22000        3.51000       -1.42700
C         11.86300        3.92400        0.01000
O         12.64700        3.74700        0.94300
C         12.37600        1.99600       -1.56700
C         11.28900        1.16800       -0.85900
N         10.70600        4.54400        0.17600
C         10.20800        4.84400        1.50300
C         10.48900        6.26200        1.93000
O         10.38400        6.58600        3.10400
N         10.82500        7.12800        0.97600
C         11.12700        8.51500        1.28500
C          9.86000        9.14000        1.84700
O          8.75100        8.71100        1.49600
C         11.60600        9.28300        0.04600
C         10.46000        9.46700       -0.99200
C         12.17200       10.62900        0.45600
N         10.01900       10.11900        2.73800
C          8.89600       10.87600        3.29100
C          9.00700       12.33800        2.83700
O         10.09100       12.91600        2.82000
C          8.82000       10.71500        4.81300
C          8.58000        9.25700        5.21800
C          8.63900        9.01800        6.72500
N          8.32600        7.61800        7.01900
C          9.20900        6.67800        7.34300
N         10.51300        6.94900        7.46600
N          8.77000        5.42900        7.55200
N          7.87500       12.93000        2.43400
C          7.88500       14.24600        1.80800
C          6.98300       15.24700        2.55500
O          5.89500       14.90300        2.98300
C          7.44300       14.14600        0.35100
C          7.17600       15.54700       -0.21900
C          8.49700       13.37100       -0.45400
N          7.47600       16.45900        2.72000
C          6.72200       17.56400        3.33800
C          6.55800       18.72800        2.34600
O          7.52000       19.21600        1.73300
C          7.41200       18.07900        4.64500
C          6.57700       19.14500        5.32000
C          7.66500       16.88000        5.60100
N          5.31800       19.19700        2.20400
C          5.05500       20.45400        1.50500
C          4.19400       21.42800        2.35300
O          2.98100       21.30600        2.42500
C          4.35400       20.20400        0.15600
C          4.28400       21.44500       -0.68300
O          4.73800       22.50500       -0.24700
N          3.71900       21.34000       -1.89000
N          4.86400       22.36000        3.01500
C          4.22700       23.45600        3.71600
C          4.57200       24.75500        3.00500
O          4.67500       25.78800        3.66700
C          4.68200       23.52900        5.18500
S          4.19100       22.09100        6.19400
N          4.74800       24.73500        1.68300
C          5.14900       25.92600        0.93800
C          3.94500       26.37600        0.11600
O          3.20100       27.25800        0.54000
C          6.38900       25.65700        0.04400
N          3.80000       25.81400       -1.08100
C          2.67800       26.09300       -1.96000
C          2.25300       24.81400       -2.68100
O          3.08900       24.03100       -3.12100
C          3.04800       27.13500       -3.00400
C          3.05900       28.57500       -2.46500
C          1.64600       28.98400       -2.10500
N          1.55800       30.38100       -1.64800
C          1.66500       30.76900       -0.37500
N          1.85700       29.89700        0.57700
N          1.54800       32.05000       -0.05700
N          0.94400       24.66900       -2.87500
C          0.41900       23.51300       -3.56600
C          0.87000       23.51900       -5.01700
O          0.84900       24.56900       -5.68500
N          1.25700       22.34800       -5.50200
C          1.75400       22.19800       -6.85800
C          3.27500       22.10400       -6.97600
O          3.78700       21.70300       -8.01200
N          4.01300       22.40900       -5.92000
C          5.47900       22.22100       -5.97700
C          5.78900       20.71900       -6.02100
O          6.65900       20.26500       -6.77800
C          6.18800       22.93000       -4.82600
C          6.05100       24.44700       -4.94800
C          7.67500       22.51800       -4.77200
C          6.35400       25.21000       -3.67300
N          5.07800       19.94300       -5.21100
C          5.07700       18.49400       -5.33800
C          3.87100       18.17600       -6.21600
O          2.74000       18.46800       -5.83800
C          4.91100       17.77100       -3.96400
C          4.96200       16.25000       -4.13800
C          5.95700       18.17900       -2.99400
N          4.09200       17.58800       -7.39100
C          2.97900       17.13600       -8.22400
C          2.08900       16.16200       -7.46500
O          2.53000       15.07800       -7.04200
C          3.45500       16.45500       -9.51100
C          2.29900       16.12900      -10.44500
O          1.61100       15.08800      -10.29900
O          2.05100       16.93700      -11.35900
N          0.81300       16.51700       -7.34800
C         -0.10700       15.76600       -6.52100
C         -0.41700       14.40400       -7.09800
O         -0.49400       13.46200       -6.33300
C         -1.39600       16.56200       -6.25800
C         -1.14200       17.78100       -5.37700
C         -2.36500       18.66200       -5.13900
O         -3.43300       18.38700       -5.74500
O         -2.26300       19.64700       -4.37000
N         -0.62900       14.28500       -8.41700
C         -0.78400       12.97100       -9.04500
C          0.42000       12.06600       -8.84200
O          0.28600       10.87500       -8.51600
N          1.61100       12.61200       -9.03500
C          2.84300       11.84200       -8.83800
C          2.99600       11.36200       -7.39600
O          3.44000       10.24400       -7.13700
C          4.02800       12.69300       -9.20900
N          2.67000       12.24500       -6.45900
C          2.76400       11.90300       -5.04300
C          1.79700       10.77800       -4.69000
O          2.16900        9.82200       -4.01000
C          2.45900       13.13500       -4.20700
C          2.44300       12.90800       -2.68700
C          3.79900       12.38400       -2.20500
C          2.07800       14.19100       -1.93600
N          0.56300       10.85900       -5.18900
C         -0.38800        9.78400       -4.93100
C          0.12200        8.47400       -5.50300
O          0.11100        7.44700       -4.83800
C         -1.76400       10.12800       -5.48400
C         -2.82400        9.06500       -5.22600
C         -3.06600        8.92800       -3.73100
C         -4.11100        9.44500       -5.95500
N          0.60700        8.49400       -6.73200
C          1.15100        7.27600       -7.30600
C          2.31000        6.72400       -6.48500
O          2.39600        5.51700       -6.29900
C          1.57100        7.50800       -8.74400
C          0.36000        7.62900       -9.63500
C          0.72700        7.68000      -11.08000
N          1.38000        8.94300      -11.38600
C          0.74600       10.05700      -11.70800
N         -0.58700       10.10100      -11.73100
N          1.44900       11.14100      -11.99300
N          3.19200        7.59400       -6.00500
C          4.32400        7.18200       -5.14900
C          3.86100        6.60500       -3.79700
O          4.40400        5.60500       -3.32500
C          5.28500        8.33600       -4.93600
N          2.85500        7.22300       -3.18800
C          2.26000        6.67900       -1.96700
C          1.62700        5.31100       -2.24400
O          1.70500        4.40400       -1.41300
C          1.21000        7.64000       -1.40500
C          1.74200        8.96300       -0.83900
C          0.65100       10.01900       -0.83400
C          2.32600        8.80400        0.55800
N          0.97800        5.17300       -3.39800
C          0.28500        3.92400       -3.73200
C          1.22600        2.75200       -3.98200
O          0.87900        1.60100       -3.71400
C         -0.62500        4.12400       -4.94100
C         -1.88300        4.87600       -4.57800
C         -2.71100        5.24700       -5.76900
O         -2.20900        5.32200       -6.89300
N         -3.99200        5.50900       -5.53300
N          2.40800        3.03300       -4.50800
C          3.37200        1.96700       -4.79500
C          4.30600        1.69500       -3.62200
O          5.00300        0.68100       -3.60000
C          4.23900        2.34800       -5.97000
O          5.16000        3.34100       -5.56800
N          4.36500        2.63000       -2.69000
C          5.28100        2.53300       -1.55400
C          6.62300        3.22100       -1.77900
O          7.45300        3.24200       -0.86900
N          6.84100        3.80600       -2.95800
C          8.05900        4.59300       -3.20600
C          8.15800        5.72800       -2.20600
O          9.26600        6.09600       -1.76700
C          8.06300        5.18400       -4.62300
C          9.37300        5.90800       -5.02800
C         10.56900        4.96500       -5.18700
O         10.43600        3.74400       -5.09200
N         11.74100        5.53500       -5.43200
N          7.00700        6.32500       -1.89000
C          6.89000        7.29400       -0.79500
C          6.13000        6.64000        0.37700
O          4.99800        6.17000        0.18700
C          6.14500        8.52800       -1.27700
S          5.87300        9.79900       -0.05500
N          6.77100        6.58500        1.55200
C          6.19900        5.97900        2.77300
C          5.13300        6.87200        3.42800
O          4.27900        6.37800        4.17800
C          7.29300        5.69300        3.77100
N          5.21300        8.16900        3.16200
C          4.28300        9.15400        3.69900
C          4.53900       10.59300        3.28500
O          5.64300       10.96200        2.87900
N          3.51400       11.42800        3.42300
C          3.66600       12.82300        3.08400
C          2.85900       13.66400        4.02400
O          1.82900       13.23300        4.53500
C          3.25000       13.03800        1.64000
N          3.30300       14.89200        4.23300
C          2.60400       15.84400        5.05200
C          2.36100       17.07200        4.20300
O          3.29300       17.63700        3.64200
C          3.42800       16.22700        6.27000
N          1.09800       17.45300        4.09400
C          0.67200       18.54900        3.19800
C         -0.15600       19.59500        3.91800
O         -1.21600       19.27800        4.42600
C         -0.20500       17.99100        2.07700
C          0.44400       16.93600        1.19000
C         -0.59200       16.38300        0.26200
C          1.66000       17.47200        0.40800
N          0.35800       20.82200        3.95800
C         -0.35300       22.02200        4.48100
C         -1.02600       22.78600        3.36100
O         -1.81400       23.68300        3.62600
C          0.65900       22.96800        5.15400
C          0.00300       24.09300        5.97700
O         -0.83500       23.76300        6.86100
O          0.33400       25.29800        5.78300
N         -0.70300       22.43900        2.10600
C         -1.01800       23.26800        0.94300
C         -1.32100       22.35600       -0.24500
O         -0.77600       21.24300       -0.35300
C          0.13900       24.23800        0.57600
C          0.30600       25.30500        1.65700
C          1.44400       23.43400        0.29500
N         -2.21600       22.83700       -1.09900
C         -2.80600       22.09100       -2.18600
C         -3.02400       22.99600       -3.39800
O         -3.15700       24.19400       -3.25800
C         -4.14400       21.52900       -1.72600
C         -4.04800       20.76700       -0.44200
C         -3.75800       19.42900       -0.45700
C         -4.18100       21.41400        0.78300
C         -3.64100       18.71900        0.74100
C         -4.06200       20.71500        1.96300
C         -3.80000       19.37300        1.93400
N         -3.04900       22.41300       -4.58700
C         -3.25400       23.17900       -5.81300
C         -4.62800       23.85600       -5.83300
O         -4.81200       24.90600       -6.46200
C         -3.08500       22.29600       -7.06600
O         -4.20700       21.41400       -7.19200
C         -1.77300       21.49500       -7.02000
N         -5.59000       23.24800       -5.14700
C         -6.90000       23.84400       -4.90400
C         -7.16400       23.82500       -3.41100
O         -7.00200       22.79300       -2.78100
C         -7.97500       23.05300       -5.60500
C         -9.35600       23.62800       -5.44200
C        -10.41100       22.80900       -6.15300
O        -10.25500       21.56600       -6.20100
O        -11.39100       23.40600       -6.64600
N         -7.57000       24.96800       -2.86400
C         -7.81800       25.11300       -1.41900
C         -9.19400       25.71600       -1.12200
O         -9.51000       26.84000       -1.54100
C         -6.71000       25.93900       -0.76300
C         -5.35800       25.24600       -0.79800
C         -4.25800       26.05100       -0.14300
O         -3.08700       25.63600       -0.18500
O         -4.55700       27.10300        0.42900
N        -10.06300       24.94100       -0.45300
C         -9.91100       23.55200       -0.03700
C         -9.90200       22.63000       -1.23600
O        -10.50700       22.94300       -2.25700
C        -11.16000       23.28300        0.81300
C        -12.07500       24.32500        0.50400
C        -11.37400       25.48500       -0.08700
N         -9.18200       21.51400       -1.14000
C         -9.09700       20.62800       -2.30400
C        -10.34300       19.81600       -2.56000
O        -10.86000       19.19600       -1.64000
C         -7.95300       19.69600       -1.96100
C         -7.82900       19.73700       -0.47200
C         -8.33600       21.07000       -0.02100
N        -10.79900       19.80800       -3.80600
C        -11.96600       19.02000       -4.19100
C        -11.58800       17.54700       -4.37900
O        -12.40100       16.65400       -4.07700
C        -12.58800       19.58100       -5.48700
C        -13.88600       18.88800       -5.97300
C        -14.04100       18.96600       -7.51700
N        -12.79700       18.57900       -8.18900
C        -12.38600       17.32500       -8.40800
N        -13.13500       16.27800       -8.05000
N        -11.21600       17.11700       -9.00900
N        -10.37300       17.28600       -4.86700
C         -9.88100       15.90900       -4.99700
C         -9.43300       15.43100       -3.63400
O         -8.58500       16.05800       -3.02000
C         -8.70200       15.80700       -5.96600
C         -8.44400       14.36500       -6.44000
O         -8.03500       13.49500       -5.64700
O         -8.64500       14.09200       -7.63900
N         -9.96600       14.30700       -3.17600
C         -9.73500       13.88600       -1.79600
C         -8.76400       12.71700       -1.66100
O         -8.47800       12.27900       -0.55200
C        -11.07600       13.52300       -1.17100
C        -12.16700       14.59600       -1.35500
C        -11.74300       15.93800       -0.78400
N        -11.51200       15.83300        0.65300
C        -10.95200       16.76600        1.41300
N        -10.52500       17.89900        0.89500
N        -10.79400       16.55100        2.71600
N         -8.23200       12.22900       -2.77700
C         -7.42000       11.01300       -2.74300
C         -6.16400       11.09400       -1.86100
O         -5.89000       10.17700       -1.08300
C         -7.05200       10.58100       -4.16500
N         -5.40500       12.18200       -1.94900
C         -4.25900       12.34600       -1.07100
C         -4.66700       12.51200        0.39000
O         -4.11800       11.85700        1.23700
C         -3.39100       13.54900       -1.48000
C         -2.47600       13.31500       -2.68200
C         -1.92500       14.63900       -3.16700
C         -1.34300       12.37100       -2.33400
N         -5.60500       13.40800        0.69200
C         -5.98900       13.64200        2.09700
C         -6.49000       12.33700        2.72500
O         -6.22600       12.04700        3.89200
C         -7.05400       14.75100        2.21500
C         -7.67300       14.76100        3.61800
C         -6.44400       16.11000        1.83600
N         -7.17900       11.53500        1.92600
C         -7.77800       10.29500        2.40500
C         -6.77700        9.15900        2.58700
O         -7.09200        8.16900        3.23700
C         -8.90400        9.84400        1.47200
C        -10.12600       10.73100        1.56100
O        -10.16100       11.62900        2.43500
O        -11.04800       10.53600        0.74400
N         -5.58500        9.29200        2.02800
C         -4.61300        8.21100        2.09100
C         -4.12000        8.08300        3.52600
O         -3.90900        9.08500        4.19300
C         -3.45400        8.49300        1.15200
C         -2.60400        7.30400        0.88400
N         -1.63800        6.87300        1.76500
C         -2.56700        6.45300       -0.16600
C         -1.05500        5.78900        1.27700
N         -1.58500        5.52800        0.09700
N         -3.96300        6.85200        4.01200
C         -3.64200        6.63000        5.43000
C         -2.26500        7.16100        5.80300
O         -2.03600        7.49300        6.96100
C         -3.74100        5.14800        5.83100
C         -2.91300        4.17300        4.97700
C         -2.41800        2.96000        5.75100
O         -3.11500        2.53400        6.71500
O         -1.31900        2.44800        5.38700
N         -1.37200        7.23800        4.81800
C          0.00400        7.71600        5.00500
C          0.19600        9.19100        4.75400
O          1.32900        9.68700        4.75100
C          0.96700        6.89500        4.12700
C          1.06400        5.44500        4.57200
O          0.77100        5.11700        5.72200
N          1.50100        4.57700        3.67000
N         -0.90000        9.91700        4.61200
C         -0.81900       11.33600        4.40300
C         -1.37900       12.07300        5.62300
O         -2.50700       11.83600        6.06100
C         -1.56600       11.75600        3.14500
C         -1.69700       13.30100        3.09100
C         -0.86500       11.19800        1.89400
N         -0.59600       13.01100        6.13400
C         -1.06800       13.89300        7.18700
C         -1.25500       15.26900        6.57400
O         -0.59700       15.61100        5.58900
C         -0.11300       13.90000        8.40000
C          1.21000       14.52100        8.08200
C          0.07900       12.44100        8.94400
C          2.22800       14.44000        9.24600
N         -2.20100       16.03700        7.09600
C         -2.58800       17.26500        6.41600
C         -3.13000       18.27900        7.37400
O         -3.52200       17.95100        8.47300
C         -3.64000       17.01100        5.30200
O         -4.85500       16.48700        5.80200
N         -3.09100       19.52100        6.93300
C         -3.63000       20.66900        7.66800
C         -3.75900       20.57600        7.65500
C         -4.27100       21.62900        6.67700
O         -3.84100       21.68200        5.51100
C         -2.52000       21.43400        8.37200
C         -2.84500       21.16300        8.71700
S         -1.66200       20.58800        9.66900
S         -1.61200       22.28400        8.06800
N         -5.27100       22.40600        7.11300
C         -5.89100       23.41900        6.22500
C         -5.08800       24.72100        6.10200
O         -5.55500       25.80100        6.50400
C         -7.26300       23.64700        6.87100
C         -7.03100       23.39300        8.36000
C         -5.96500       22.31100        8.41300
N         -3.86700       24.61300        5.57300
C         -2.99000       25.77500        5.30200
C         -2.83400       26.60800        6.57600
O         -3.22200       27.77500        6.63300
C         -3.50900       26.59900        4.12000
C         -2.51400       27.57300        3.56300
N         -2.49600       27.93000        2.23000
C         -1.49000       28.24100        4.13900
C         -1.53000       28.81000        2.02100
N         -0.91000       29.02600        3.16700
N         -2.24400       25.96400        7.58300
C         -2.05300       26.52900        8.91400
C         -0.64400       27.00600        9.16100
O         -0.32300       27.36400       10.28800
C         -2.36300       25.46100        9.98800
C         -3.76500       24.91500        9.99200
C         -3.86800       23.79800       11.05900
C         -4.81200       26.00800       10.20300
N          0.21100       26.99000        8.14300
C          1.62200       27.37500        8.33100
C          1.81200       28.74600        8.99900
O          2.80500       28.95700        9.73600
N          0.89000       29.68000        8.75900
C          0.96200       31.01900        9.33200
C         -0.06300       31.25000       10.46100
O         -0.22600       32.36100       10.97200
C          0.78700       32.08400        8.24400
N         -0.73400       30.17600       10.87300
C         -1.87500       30.28400       11.69700
C         -1.49000       30.16100       13.16800
O         -1.86200       29.20800       13.85700
C         -2.92900       29.26600       11.26100
O         -3.48600       29.66600       10.02100
N         -0.73900       31.14700       13.63000
C         -0.46800       31.32300       15.04700
C         -0.76300       32.75700       15.42800
O         -0.73900       33.64000       14.58900
C          0.98300       31.01500       15.40200
O          1.85700       32.00600       14.83700
C          1.38600       29.66600       14.91300
N         -1.03300       32.99500       16.70500
C         -1.29300       34.33600       17.19800
C         -0.11200       35.24300       16.89300
O         -0.28100       36.39700       16.48300
C         -1.53600       34.29700       18.71900
C         -2.71700       33.42300       19.16600
C         -3.95100       33.57900       18.29000
C         -5.23000       33.06600       18.98000
N         -5.85800       34.12800       19.84100
N          1.09100       34.70200       17.08000
C          2.31800       35.47900       16.93900
C          2.57200       35.91500       15.48500
O          2.80700       37.09900       15.22200
C          3.50100       34.66700       17.49300
C          3.37900       34.43200       19.02000
C          2.60900       33.15000       19.39500
O          1.99900       32.50900       18.51600
O          2.57300       32.81200       20.60200
N          2.48300       34.96400       14.56500
C          2.62100       35.23400       13.13000
C          1.59900       36.23900       12.63000
O          1.94600       37.20100       11.91900
C          2.50900       33.92300       12.33100
N          0.34200       36.04800       13.01100
C         -0.71100       36.96600       12.56600
C         -0.50000       38.38400       13.11200
O         -0.68800       39.36600       12.38600
C         -2.08700       36.40300       12.91300
C         -2.40900       35.15200       12.10100
C         -2.32800       35.43100       10.61400
O         -3.04500       36.30400       10.10800
N         -1.40300       34.75600        9.91000
N         -0.04200       38.48900       14.35900
C          0.36600       39.78800       14.90100
C          1.48100       40.41000       14.06600
O          1.37500       41.55300       13.63800
C          0.83000       39.65500       16.35000
O          1.28800       40.91700       16.80500
N          2.54500       39.65800       13.83000
C          3.68600       40.19200       13.07500
C          3.31500       40.63200       11.66000
O          3.70700       41.70400       11.21300
C          4.83500       39.17800       13.04400
C          5.48900       39.02500       14.42000
C          6.92000       38.54800       14.37700
N          7.00900       37.25000       13.75800
C          6.76300       36.08500       14.36300
N          6.43600       36.02700       15.65300
N          6.85900       34.95900       13.67000
N          2.53600       39.81600       10.97100
C          2.07600       40.15600        9.62300
C          1.18600       41.39400        9.61100
O          1.32100       42.24400        8.72600
C          1.34400       38.98500        8.98900
S          2.49000       37.67800        8.53700
N          0.30100       41.50800       10.59800
C         -0.59500       42.66700       10.71000
C          0.20000       43.95200       10.88100
O         -0.06300       44.95700       10.20000
N          1.18800       43.91000       11.77100
C          2.14900       45.00800       11.92800
C          2.93500       45.29600       10.63900
O          2.99700       46.42600       10.18900
C          3.12900       44.68800       13.06000
C          4.33100       45.63300       13.14100
C          5.04800       45.53800       14.46000
O          4.85800       44.52700       15.15600
O          5.78800       46.48300       14.81600
N          3.54300       44.25600       10.07300
C          4.39600       44.36800        8.88700
C          3.70100       45.07700        7.71400
O          4.32800       45.89700        7.03200
C          4.89900       42.97100        8.47000
C          6.00200       42.94500        7.40700
C          6.63300       41.55800        7.21700
O          6.50300       40.71700        8.12100
O          7.26900       41.31400        6.16700
N          2.42000       44.79000        7.48200
C          1.71300       45.38700        6.33900
C          1.20700       46.78000        6.66800
O          1.25300       47.64400        5.80400
C          0.54100       44.51200        5.81700
C          0.05400       45.00400        4.43900
C         -0.60300       44.48200        6.83100
C          1.05900       44.83600        3.28600
N          0.73200       47.02100        7.89500
C          0.29200       48.38800        8.25000
C          1.46800       49.35000        8.20700
O          1.30900       50.48200        7.77200
C         -0.38200       48.42300        9.63200
N          2.64300       48.89400        8.63700
C          3.84500       49.74000        8.70600
C          4.32400       50.21900        7.32900
O          4.75500       51.37200        7.18300
C          4.99800       49.03000        9.49300
C          6.36700       49.43000        8.96900
C          4.89400       49.35400       10.97800
N          4.22100       49.35600        6.32300
C          4.48900       49.74100        4.93400
C          3.52500       50.81600        4.44300
O          3.94200       51.79800        3.82300
C          4.39500       48.52300        4.01600
C          5.48700       47.53100        4.23800
C          5.26600       46.28600        3.42500
O          5.58800       46.24300        2.23800
N          4.69600       45.26400        4.04800
N          2.23800       50.61900        4.70900
C          1.21000       51.59000        4.35700
C          1.49200       52.95800        4.98900
O          1.19300       53.99700        4.38900
C         -0.17300       51.11400        4.81400
C         -0.90500       50.25600        3.81000
C         -0.33100       49.11200        3.28200
C         -2.19700       50.58200        3.42800
C         -1.03000       48.33600        2.37300
C         -2.88900       49.81700        2.51900
C         -2.31500       48.68300        2.00100
N          2.04100       52.97700        6.20300
C          2.24900       54.26200        6.90700
C          3.47300       55.01200        6.37100
O          3.45600       56.25500        6.24200
C          2.40600       54.06500        8.43200
C          2.78400       55.37800        9.09200
C          1.12400       53.50700        9.03800
N          4.53500       54.25900        6.08700
C          5.72200       54.79600        5.42300
C          5.32100       55.34900        4.05200
O          5.88700       56.33400        3.59100
C          6.80300       53.71300        5.25600
C          7.32100       53.16000        6.59300
O          6.94500       53.67800        7.66800
O          8.11200       52.18900        6.56700
N          4.34300       54.70500        3.41100
C          3.75800       55.20100        2.16600
C          3.21900       56.62000        2.33400
O          3.31000       57.43700        1.41300
N          2.65100       56.90500        3.50300
C          2.36800       58.28200        3.89700
C          3.66300       58.93800        4.37000
O          4.11300       59.94400        3.80500
C          1.33900       58.34600        5.03600
N         22.17800      -22.17800       28.40000
C         20.78200      -22.73200       28.43700
C         19.88700      -22.31800       27.15900
O         20.38200      -22.13000       26.02500
C         20.15300      -22.29100       29.82300
N         18.55000      -22.44500       27.40100
C         17.54800      -22.20100       26.36100
C         16.67500      -21.00200       26.74300
O         16.13600      -20.96100       27.85300
C         16.68200      -23.45600       26.16600
C         15.39500      -23.22500       25.38400
C         14.67200      -24.52100       25.09000
C         13.23200      -24.26400       24.67300
N         12.60200      -25.44900       24.03600
N         16.53600      -20.04600       25.81500
C         15.79500      -18.80100       26.03300
C         14.54200      -18.71300       25.15000
O         14.59300      -18.97300       23.93100
C         16.65900      -17.56100       25.66400
C         15.84700      -16.26600       25.80200
C         17.91200      -17.48400       26.52500
N         13.42700      -18.30600       25.74900
C         12.21100      -18.02600       24.99100
C         12.01600      -16.53300       24.85800
O         11.98600      -15.81000       25.86200
C         10.98400      -18.64600       25.67100
C          9.58200      -18.15000       25.27500
C          9.25700      -18.54300       23.82200
C          8.51500      -18.75000       26.27700
N         11.86800      -16.07500       23.61800
C         11.45700      -14.71000       23.35000
C          9.94700      -14.75100       23.07900
O          9.50500      -15.28500       22.06100
C         12.20400      -14.10900       22.15000
C         13.69300      -13.92300       22.46600
C         11.59600      -12.75900       21.77500
C         14.60100      -13.89000       21.21100
N          9.15700      -14.19600       23.99700
C          7.69300      -14.31600       23.95900
C          6.99500      -13.08100       23.37900
O          5.76700      -13.09600       23.20400
C          7.13600      -14.60300       25.36500
O          7.08800      -13.41100       26.13900
N          7.75600      -12.02100       23.09000
C          7.23000      -10.85500       22.41300
C          8.02400      -10.54400       21.14400
O          9.07000      -11.13900       20.88400
C          7.27900       -9.62400       23.33000
C          6.30200       -9.70400       24.48200
O          5.21400      -10.28400       24.30500
O          6.61600       -9.15500       25.56400
N          7.52100       -9.58000       20.37800
C          8.13500       -9.19800       19.11300
C          9.36100       -8.32600       19.36300
O          9.23700       -7.19600       19.83700
C          7.12800       -8.46100       18.22200
O          7.38800       -8.73900       16.85300
N         10.54000       -8.86900       19.06900
C         11.79800       -8.12200       19.20300
C         12.51600       -8.02500       17.86800
O         12.26600       -8.81400       16.94900
C         12.73800       -8.81900       20.18100
C         12.33500       -8.96600       21.65500
C         13.55100       -9.39000       22.45900
C         11.80100       -7.68600       22.19200
N         13.45000       -7.08900       17.76900
C         14.32700       -7.04100       16.61200
C         15.01800       -8.41200       16.48400
O         15.38900       -8.98800       17.50500
C         15.36300       -5.92700       16.76700
C         16.13100       -5.67800       15.49400
O         17.04700       -6.46300       15.19400
O         15.81400       -4.70800       14.78900
N         15.17200       -8.94700       15.24800
C         15.85300      -10.24200       15.05100
C         17.31800      -10.33900       15.51900
O         17.82000      -11.45700       15.64700
C         15.76100      -10.46600       13.53300
C         14.64100       -9.60900       13.08600
C         14.66000       -8.41400       13.97300
N         17.98500       -9.21700       15.80100
C         19.37100       -9.22400       16.28600
C         19.37000       -9.29700       16.25200
C         19.48200       -9.79600       17.69700
O         20.54200      -10.28300       18.10000
C         19.97500       -7.81600       16.27000
C         20.10300       -7.97100       16.07900
S         19.38100       -6.66100       17.56900
S         21.83700       -8.22200       15.65300
N         18.39500       -9.70700       18.46700
C         18.37300      -10.29600       19.81100
C         18.66000      -11.78400       19.66400
O         19.65500      -12.29100       20.19000
C         17.01900      -10.08300       20.48600
S         16.95700      -10.56700       22.23500
N         17.80200      -12.45000       18.89500
C         17.97700      -13.86100       18.54300
C         19.39000      -14.19100       18.04200
O         19.96000      -15.20500       18.44800
C         16.94200      -14.24900       17.47300
C         17.13300      -15.61500       16.82000
C         16.46100      -16.70600       17.60700
N         15.13600      -17.02400       17.07600
C         14.90700      -17.78400       16.00200
N         13.65600      -18.01100       15.61300
N         15.91200      -18.31100       15.30700
N         19.93300      -13.36500       17.14400
C         21.25100      -13.63700       16.54100
C         22.38100      -13.65800       17.55900
O         23.24100      -14.54100       17.53000
C         21.59500      -12.61400       15.45100
C         21.03800      -12.94800       14.08500
N         22.37800      -12.65900       18.43300
C         23.41200      -12.49300       19.45200
C         23.37000      -13.65800       20.44200
O         24.42200      -14.16800       20.83200
C         23.28000      -11.09800       20.14500
C         23.71900      -10.00500       19.17500
C         24.10900      -11.01500       21.43200
C         23.15400       -8.66300       19.51600
N         22.16400      -14.08900       20.82000
C         21.99100      -15.25700       21.71800
C         22.53500      -16.55500       21.16700
O         23.21000      -17.29300       21.88200
C         20.51500      -15.47300       22.04000
C         19.90100      -14.36000       22.88600
C         18.39000      -14.57100       22.98000
C         20.58900      -14.35700       24.28400
N         22.21900      -16.84000       19.90800
C         22.69200      -18.06200       19.25500
C         24.20400      -18.04200       19.03700
O         24.88100      -19.06600       19.21800
C         22.00100      -18.24200       17.91100
C         20.52700      -18.57500       17.99300
C         19.87300      -18.56200       16.62300
O         20.32900      -17.86500       15.71300
N         18.80900      -19.33900       16.46500
N         24.71500      -16.88500       18.61900
C         26.15700      -16.62900       18.53800
C         26.87000      -16.93800       19.85400
O         28.05000      -17.27000       19.85500
C         26.42000      -15.15300       18.18200
C         26.34700      -14.87600       16.68500
O         26.87800      -13.82100       16.26400
O         25.77200      -15.69400       15.92700
N         26.15600      -16.77500       20.96600
C         26.65700      -17.12200       22.28800
C         26.38600      -18.57100       22.65100
O         26.72100      -19.00000       23.75100
N         25.76700      -19.32100       21.73800
C         25.58000      -20.77700       21.90300
C         24.26500      -21.20900       22.54100
O         24.14100      -22.34900       22.98400
N         23.26900      -20.32200       22.55600
C         21.99200      -20.58900       23.23400
C         20.88800      -21.01700       22.27400
O         20.76100      -20.45700       21.14600
C         21.50500      -19.35600       23.99400
C         22.28300      -18.90500       25.23400
C         23.78500      -18.79200       24.93800
C         21.73100      -17.57700       25.70600
N         20.07700      -21.99100       22.73100
C         18.84300      -22.33300       22.03100
C         17.85600      -21.18100       22.22400
O         17.74100      -20.62800       23.32000
C         18.25300      -23.65900       22.53700
C         17.22200      -24.25500       21.57400
C         16.51300      -25.50200       22.10200
O         17.09500      -26.31500       22.83000
N         15.24300      -25.65700       21.72500
N         17.18100      -20.78200       21.15000
C         16.13900      -19.76100       21.24300
C         14.83000      -20.29500       20.67700
O         14.81700      -21.06600       19.71100
C         16.49600      -18.46400       20.52000
C         15.35800      -17.45000       20.70700
C         17.80000      -17.88200       21.04600
N         13.73300      -19.92300       21.32400
C         12.40100      -20.14800       20.79100
C         11.72800      -18.78200       20.76500
O         11.63600      -18.12000       21.79800
C         11.60500      -21.13400       21.65500
C         10.24300      -21.41100       21.03700
C         12.37900      -22.40700       21.82600
N         11.30400      -18.35700       19.57600
C         10.72200      -17.03300       19.37600
C          9.26000      -17.24000       19.00900
O          8.95500      -17.80100       17.95500
C         11.49200      -16.28900       18.27800
C         11.35400      -14.78700       18.29100
C         12.43200      -14.08200       17.46200
O         12.58600      -12.83900       17.59900
O         13.12400      -14.77300       16.67200
N          8.36700      -16.79500       19.89100
C          6.95200      -17.17400       19.83100
C          6.08300      -16.10600       20.48700
O          5.94100      -16.07500       21.71600
C          6.73100      -18.52200       20.54000
C          7.03400      -19.76900       19.70500
N          5.52000      -15.22500       19.66600
C          4.71300      -14.10500       20.14200
C          3.26500      -14.51300       20.45000
O          2.81300      -15.56900       20.03600
C          4.72000      -12.98700       19.09600
N          2.56300      -13.65000       21.19000
C          1.12100      -13.76900       21.44600
C          0.67800      -15.08700       22.10100
O         -0.40000      -15.61600       21.80200
C          0.33200      -13.49200       20.15600
C          0.50000      -12.06000       19.66600
O          0.43200      -11.11400       20.45300
N          0.71500      -11.89200       18.36000
N          1.50700      -15.59700       23.01200
C          1.18200      -16.82000       23.75600
C          0.12400      -16.53300       24.81300
O          0.18400      -15.50800       25.50000
C          2.42200      -17.37200       24.47100
C          3.60400      -17.79800       23.60400
C          4.79000      -18.21900       24.46400
C          3.17400      -18.92400       22.69700
N         -0.82300      -17.45600       24.95800
C         -1.74300      -17.42600       26.08800
C         -0.93900      -17.68100       27.36900
O          0.23100      -18.08500       27.31000
C         -2.85200      -18.47600       25.92400
O         -2.60400      -19.60300       26.78800
N         -1.56400      -17.43800       28.52000
C         -0.93300      -17.70900       29.81700
C         -0.52700      -19.18000       29.91800
O          0.56100      -19.51100       30.38700
C         -1.88500      -17.36200       30.97000
C         -2.26700      -15.88400       31.04400
N         -1.41100      -20.05300       29.45900
C         -1.15100      -21.47900       29.49100
C         -0.08200      -21.88200       28.47200
O          0.72900      -22.77100       28.74300
C         -2.44500      -22.28100       29.26400
C         -3.38400      -22.34500       30.48300
C         -4.00200      -20.99700       30.86700
O         -4.04700      -20.06900       30.02500
O         -4.45500      -20.86800       32.02500
N         -0.08200      -21.24900       27.30000
C          0.92800      -21.55100       26.27600
C          2.31400      -21.12600       26.75000
O          3.29600      -21.82300       26.52500
C          0.59100      -20.87200       24.94400
C         -0.52400      -21.56700       24.16100
C         -1.11600      -20.70700       23.05200
O         -0.82500      -19.49100       22.98800
O         -1.89500      -21.25100       22.24600
N          2.37500      -19.97700       27.41200
C          3.63300      -19.42400       27.90800
C          4.28300      -20.32700       28.95500
O          5.48500      -20.59600       28.90000
C          3.37300      -18.04700       28.51500
C          4.57400      -17.23400       28.99300
C          5.32700      -16.65400       27.81100
C          4.10100      -16.12600       29.93300
N          3.47800      -20.78000       29.91100
C          3.94100      -21.68500       30.96700
C          4.47600      -22.99400       30.38200
O          5.52500      -23.49500       30.80100
C          2.79500      -22.00100       31.95900
C          2.42800      -20.74900       32.75900
C          3.17800      -23.14400       32.90400
C          1.08700      -20.85800       33.47500
N          3.74500      -23.53200       29.40700
C          4.11300      -24.77300       28.73100
C          5.49000      -24.67500       28.07100
O          6.33800      -25.54200       28.26200
C          3.05900      -25.12600       27.69300
N          5.69300      -23.62000       27.28500
C          6.97400      -23.36600       26.60700
C          8.13700      -23.24400       27.57800
O          9.18000      -23.87700       27.40100
C          6.91300      -22.04800       25.83500
C          5.96700      -22.03400       24.65400
C          6.38300      -22.96400       23.52700
O          7.54100      -23.44600       23.50600
O          5.53500      -23.18600       22.64400
N          7.92600      -22.43700       28.61100
C          8.95700      -22.09200       29.58800
C          9.52800      -23.22300       30.43100
O         10.59000      -23.04400       31.02300
C          8.41900      -21.03500       30.55500
C          8.57800      -19.57100       30.17600
C          8.03900      -18.72200       31.32100
C         10.03300      -19.24700       29.87600
N          8.84300      -24.36500       30.50600
C          9.24400      -25.44300       31.42300
C         10.53100      -26.16400       30.99200
O         11.10800      -26.93400       31.76700
C          8.10200      -26.45100       31.62400
C          7.77900      -27.30100       30.41000
N         10.97000      -25.89200       29.76300
C         12.25000      -26.36800       29.24600
C         13.23900      -25.18600       29.12500
O         14.30700      -25.33500       28.53400
C         12.00800      -27.02200       27.87300
C         13.08700      -28.02000       27.48100
O         14.02500      -27.63000       26.75100
O         12.98500      -29.20600       27.86700
N         12.89200      -24.02500       29.69900
C         13.66400      -22.77000       29.51100
C         14.17600      -22.13200       30.81000
O         13.40300      -21.95000       31.79500
C         12.79300      -21.70600       28.83800
S         12.16100      -22.14100       27.21900
N         15.45200      -21.72300       30.79300
C         16.03600      -20.98300       31.92300
C         16.05400      -19.45600       31.71700
O         16.24500      -18.69800       32.67300
C         17.43900      -21.53000       32.24000
N         15.84100      -19.00900       30.47600
C         15.74700      -17.59200       30.15200
C         14.40300      -17.27700       29.51700
O         13.83600      -18.11700       28.80800
N         13.88000      -16.09000       29.82000
C         12.70200      -15.52900       29.14400
C         13.02600      -14.10300       28.77500
O         13.56300      -13.37000       29.60200
C         11.46000      -15.55400       30.05200
C         10.23400      -14.77800       29.54100
C          9.73700      -15.38200       28.22100
C          9.11100      -14.71700       30.57900
N         12.71200      -13.71100       27.54000
C         12.89000      -12.32700       27.11700
C         11.57100      -11.71600       26.63300
O         10.94300      -12.24900       25.72000
C         13.94100      -12.19300       26.01000
C         15.31500      -12.66400       26.50700
C         14.00200      -10.74600       25.55500
C         16.49900      -12.14400       25.66600
N         11.17300      -10.60300       27.24800
C          9.91700       -9.92000       26.93100
C         10.13800       -8.46900       26.48800
O         11.24400       -7.92500       26.60400
C          8.98100       -9.95800       28.14900
C          8.77500      -11.42000       28.59100
C          9.55200       -9.12200       29.29700
N          9.09200       -7.87000       25.93100
C          9.06600       -6.44600       25.69600
C          8.03200       -5.95500       26.70900
O          8.34900       -5.93200       27.89100
C          8.78300       -6.08900       24.22100
C          8.93500       -4.59800       23.95800
C          8.74700       -4.17500       22.47300
N          8.63600       -2.71000       22.35100
C          8.11500       -2.06700       21.30800
N          7.64600       -2.70500       20.24100
N          8.04600       -0.73300       21.33900
N          6.80900       -5.62500       26.29400
C          5.76900       -5.16000       27.23200
C          4.49500       -6.01100       27.23700
O          3.73400       -5.96700       28.19900
C          5.36400       -3.71900       26.92400
O          6.35900       -2.75300       27.28600
N          4.24900       -6.76000       26.16600
C          3.01700       -7.55900       26.02900
C          2.87100       -8.74900       26.99000
O          1.77000       -9.04600       27.47500
C          2.90200       -8.06100       24.60300
N          3.96300       -9.46600       27.21700
C          3.92400      -10.66800       28.03300
C          3.89600      -10.22600       29.47200
O          4.66100       -9.34900       29.86400
C          5.15500      -11.51100       27.76800
O          5.18500      -11.82000       26.37400
C          5.14600      -12.81800       28.59500
N          3.00300      -10.81100       30.25900
C          2.90300      -10.42600       31.65900
C          3.51100      -11.52900       32.50400
O          2.93900      -12.61900       32.64600
C          1.45200      -10.10800       32.03900
C          0.77200       -9.07700       31.11300
C          1.45100       -7.70300       31.12300
C          0.90100       -6.80700       30.02100
N          1.56100       -5.46500       29.95600
N          4.70400      -11.24600       33.02700
C          5.45100      -12.19400       33.84400
C          4.95400      -12.02600       35.27400
O          5.55500      -11.33900       36.09400
C          6.98200      -12.00000       33.75600
C          7.70300      -13.20300       34.35600
C          7.41300      -11.80700       32.30800
N          3.81300      -12.65200       35.53100
C          3.15600      -12.60000       36.82300
C          3.75800      -13.66100       37.73800
O          4.46700      -14.55900       37.28300
C          1.65900      -12.87500       36.66400
O          1.48300      -14.17200       36.07100
C          1.00200      -11.81100       35.78400
N          3.46100      -13.55100       39.03100
C          3.93900      -14.51100       40.02900
C          3.52400      -15.93300       39.68100
O          4.28900      -16.86800       39.89800
C          3.42500      -14.14500       41.39700
N          2.31600      -16.09400       39.14300
C          1.82500      -17.41500       38.72800
C          2.67600      -18.00400       37.61000
O          2.97000      -19.18500       37.63000
C          0.35000      -17.35300       38.30700
C         -0.60200      -17.40200       39.49900
O         -0.66900      -18.46100       40.15700
O         -1.29000      -16.39700       39.78000
N          3.09200      -17.18300       36.64600
C          3.96900      -17.67900       35.57800
C          5.31600      -18.09400       36.17400
O          5.80200      -19.20500       35.93400
C          4.17500      -16.62700       34.45800
C          5.25800      -17.07500       33.48800
C          2.86600      -16.39400       33.72200
N          5.88600      -17.19300       36.96900
C          7.17200      -17.40900       37.62900
C          7.15900      -18.66300       38.49100
O          8.08000      -19.48100       38.41300
C          7.55500      -16.19700       38.51400
C          7.93300      -14.99300       37.64100
C          8.70400      -16.55900       39.45100
C          7.98900      -13.68600       38.40100
N          6.11100      -18.82600       39.29600
C          5.98600      -20.00400       40.16700
C          5.85600      -21.31600       39.38800
O          6.42100      -22.33800       39.78000
C          4.79800      -19.84800       41.12600
C          4.93900      -18.64300       42.03800
O          6.04500      -18.15300       42.26900
N          3.81500      -18.15300       42.55100
N          5.11800      -21.27300       38.27900
C          4.95800      -22.43600       37.40600
C          6.20600      -22.68900       36.55400
O          6.37800      -23.77700       36.02900
C          3.73300      -22.25600       36.50700
N          7.06200      -21.68200       36.40300
C          8.26200      -21.80400       35.57000
C          9.44600      -22.26500       36.41800
O         10.39200      -21.51600       36.65000
C          8.57000      -20.47600       34.87900
N          9.39400      -23.51400       36.86300
C         10.35800      -24.00800       37.84600
C         11.83100      -23.97400       37.40500
O         12.72100      -23.82300       38.24500
C          9.96700      -25.41700       38.31800
C          8.94400      -25.40500       39.46100
C          8.34700      -26.77800       39.75300
O          7.44900      -27.20500       38.99400
O          8.75800      -27.42600       40.74800
N         12.09400      -24.10100       36.10700
C         13.47300      -24.07600       35.60900
C         13.96200      -22.65400       35.26600
O         15.14500      -22.46500       35.00100
C         13.62500      -24.99800       34.39400
C         13.44600      -26.48000       34.71300
N         13.07500      -21.65900       35.29800
C         13.44500      -20.28200       34.93000
C         14.55500      -19.71200       35.83900
O         14.60700      -20.02400       37.02200
C         12.20100      -19.37000       34.95600
C         12.25800      -17.95100       34.38000
C         12.56900      -17.94200       32.88400
C         10.93100      -17.24700       34.64600
N         15.44300      -18.88600       35.27200
C         16.59100      -18.33600       36.02500
C         16.83500      -16.84400       35.79300
O         17.36300      -16.15600       36.66700
C         17.86900      -19.11200       35.69500
N         16.48100      -16.36800       34.60700
C         16.63900      -14.95200       34.26600
C         15.48600      -14.48500       33.37500
O         15.08300      -15.17500       32.44200
C         17.99000      -14.69200       33.56500
C         18.20800      -13.18800       33.38000
C         19.14900      -15.32900       34.36100
N         14.95400      -13.30000       33.66400
C         13.95200      -12.69900       32.81800
C         14.55700      -11.40200       32.32800
O         15.06700      -10.64000       33.12900
C         12.63900      -12.41600       33.57100
C         11.67900      -11.65400       32.68500
C         12.01300      -13.73300       34.04900
N         14.56400      -11.18900       31.01600
C         15.02300       -9.90700       30.45500
C         13.87800       -9.19400       29.80200
O         13.06400       -9.80400       29.12600
N         13.82000       -7.88300       30.02900
C         12.85000       -7.00100       29.40300
C         13.61600       -6.07700       28.46300
O         14.60500       -5.49000       28.86000
C         12.09800       -6.22800       30.48300
C         11.35200       -4.98700       30.02000
C         10.55400       -4.43500       31.16100
N         10.17400       -3.05600       30.89100
C          9.09000       -2.69700       30.21400
N          8.25300       -3.59800       29.74700
N          8.83700       -1.41200       29.99700
N         13.16300       -5.97900       27.21400
C         13.81200       -5.15000       26.20900
C         13.18700       -3.76000       26.22400
O         12.55500       -3.33900       25.25100
C         13.68600       -5.78800       24.82100
N         13.37200       -3.06000       27.33800
C         12.81200       -1.73600       27.58700
C         13.22900       -1.28700       28.97700
O         13.94900       -2.01700       29.68400
N         12.77700       -0.10100       29.36200
C         13.11500        0.51700       30.65200
C         12.16700       -0.01100       31.73300
O         11.04400       -0.40900       31.45600
C         13.05300        2.08100       30.62800
O         11.72800        2.53500       30.31400
C         14.08000        2.70300       29.65100
N         12.62400       -0.00200       32.97600
C         11.78200       -0.42200       34.09700
C         11.49200       -1.90100       34.08800
O         12.14800       -2.66100       33.37500
N         10.52800       -2.30500       34.91300
C         10.11600       -3.70700       35.01000
C          8.59900       -3.84900       35.05300
O          8.05900       -4.76000       35.68700
C         10.71900       -4.37900       36.25800
C         12.25700       -4.37600       36.16500
C         10.20900       -3.70400       37.53500
N          7.92300       -2.97400       34.31900
C          6.47800       -2.77800       34.44200
C          5.63500       -4.03700       34.26500
O          4.59200       -4.17300       34.89900
C          6.03500       -1.73000       33.44400
C          6.71500       -0.39500       33.68500
O          6.04200        0.54400       34.16000
O          7.93900       -0.30200       33.44100
N          6.09600       -4.93700       33.40500
C          5.41400       -6.21600       33.14600
C          6.11000       -7.45800       33.75200
O          5.85700       -8.57900       33.31900
C          5.23100       -6.41300       31.63100
C          6.55000       -6.56100       30.89200
O          7.51700       -5.87200       31.20700
N          6.59400       -7.46200       29.90400
N          6.99600       -7.25100       34.72500
C          7.60000       -8.34900       35.47800
C          7.29600       -8.11300       36.95200
O          7.43500       -6.99300       37.45200
C          9.13400       -8.45000       35.24800
C          9.70900       -9.65400       35.97400
C          9.45700       -8.52700       33.75100
N          6.82600       -9.15600       37.62700
C          6.64000       -9.11300       39.06600
C          8.02700       -9.30300       39.67200
O          8.45500      -10.42800       39.92100
C          5.66200      -10.20700       39.51500
C          5.30800      -10.11100       40.98900
O          6.04900       -9.45900       41.75500
O          4.28300      -10.70100       41.38900
N          8.73700       -8.19400       39.88200
C         10.11700       -8.24800       40.37000
C         10.20100       -8.88200       41.76300
O         11.17700       -9.57100       42.07300
C         10.76000       -6.85500       40.36700
C         12.21300       -6.74900       40.85100
C         13.11200       -7.77800       40.19300
C         12.75200       -5.35000       40.60900
N          9.17200       -8.67000       42.58400
C          9.12300       -9.24100       43.93700
C          8.98900      -10.76700       43.93000
O          9.61300      -11.45800       44.74100
C          7.96900       -8.62400       44.73800
N          8.16900      -11.29200       43.02300
C          8.02400      -12.74400       42.87100
C          9.30100      -13.36700       42.31300
O          9.72500      -14.41900       42.76100
C          6.83800      -13.07900       41.97700
N          9.91200      -12.70600       41.33800
C         11.16100      -13.17600       40.74600
C         12.28800      -13.23700       41.77400
O         13.07400      -14.17900       41.78600
C         11.56500      -12.27400       39.58000
N         12.36700      -12.22500       42.63200
C         13.41400      -12.15700       43.64600
C         13.19300      -13.21100       44.73400
O         14.15800      -13.76300       45.26500
C         13.48800      -10.76500       44.30100
O         13.62800       -9.75600       43.29000
C         14.66800      -10.69400       45.27800
N         11.92800      -13.48400       45.06000
C         11.58100      -14.52100       46.04000
C         12.09500      -15.88700       45.59500
O         12.57300      -16.66800       46.41500
C         10.06800      -14.58100       46.27900
C          9.54800      -13.51700       47.23700
N         11.97900      -16.17500       44.29900
C         12.68000      -17.31400       43.69500
C         14.08100      -16.82500       43.31200
O         14.42800      -15.66700       43.54900
C         11.92100      -17.86700       42.48200
C         10.45100      -18.22300       42.74600
C         10.30000      -19.54100       43.49000
N         14.89800      -17.68000       42.72000
C         16.28700      -17.30500       42.47400
C         16.53500      -16.54700       41.18600
O         17.61700      -16.68500       40.61000
N         15.57000      -15.72000       40.75600
C         15.49100      -15.25300       39.35400
C         15.97100      -13.81600       39.11900
O         15.41200      -12.84600       39.65500
C         14.05200      -15.38500       38.79300
C         13.60200      -16.85300       38.80500
C         13.95900      -14.79400       37.37000
C         12.13100      -17.02800       38.48800
N         17.00400      -13.70500       38.29200
C         17.57300      -12.42400       37.89300
C         16.66300      -11.71300       36.88400
O         16.16100      -12.34300       35.95600
C         18.95400      -12.67000       37.27400
C         19.73700      -11.48800       36.70500
C         19.90400      -10.38200       37.73900
C         21.09100      -11.99500       36.21100
N         16.45300      -10.40900       37.07000
C         15.70000       -9.60400       36.10700
C         16.60700       -8.48500       35.56500
O         17.21300       -7.74200       36.33100
C         14.39500       -9.02100       36.72400
C         13.62600       -8.17100       35.71000
C         13.50700      -10.14600       37.24000
N         16.70300       -8.39900       34.23700
C         17.57900       -7.45300       33.54700
C         16.75700       -6.64800       32.55200
O         15.70700       -7.09800       32.09900
C         18.67500       -8.18500       32.78100
C         19.47000       -9.15300       33.61600
S         20.67700      -10.13000       32.68900
C         19.61200      -11.03000       31.59900
N         17.24700       -5.46800       32.20500
C         16.53100       -4.59200       31.28300
C         17.50200       -3.72100       30.48800
O         18.71100       -3.96600       30.50400
C         15.41700       -3.79300       32.00200
C         15.95000       -2.77100       32.99400
O         17.16400       -2.52600       33.08300
N         15.04200       -2.21400       33.79800
N         16.97400       -2.73500       29.76400
C         17.76100       -2.00000       28.77500
C         17.52600       -0.51200       28.96000
O         16.67600        0.06700       28.28100
C         17.41100       -2.46900       27.30900
O         16.05400       -2.13100       26.97700
C         17.62000       -3.98000       27.14800
N         18.23000        0.11300       29.92500
C         17.95600        1.52800       30.22100
C         18.50600        2.55900       29.22700
O         18.18400        3.72900       29.34600
C         18.63000        1.72900       31.57300
C         19.71900        0.72600       31.60100
C         19.26400       -0.43400       30.82000
N         19.33400        2.13500       28.28000
C         19.97400        3.03100       27.33300
C         19.43200        3.02900       25.90800
O         19.43700        4.06600       25.25600
C         21.46900        2.72300       27.26900
C         22.15400        2.85700       28.61600
O         21.77800        3.67300       29.44100
N         23.17400        2.05300       28.83200
N         18.96400        1.88300       25.43500
C         18.70300        1.69100       24.01700
C         17.60000        2.52800       23.42300
O         17.60900        2.81800       22.22200
N         16.62300        2.91200       24.22100
C         15.47800        3.61000       23.61900
C         15.33700        5.09600       23.96100
O         14.36700        5.73400       23.55100
C         14.15500        2.85400       23.83800
C         13.82200        2.64400       25.29400
O         14.25800        3.40400       26.15700
N         13.07700        1.55700       25.58900
N         16.31200        5.64700       24.68700
C         16.26500        7.04100       25.16200
C         16.05300        8.06700       24.04800
O         15.21300        8.98000       24.14700
C         17.57200        7.41800       25.89100
O         17.91100        6.46000       26.86000
N         16.84400        7.93700       22.99100
C         16.81800        8.91100       21.92400
C         15.45500        8.90400       21.21400
O         14.88800        9.96200       20.90600
C         17.95300        8.67400       20.93800
C         18.31600        9.86200       20.04400
C         19.82500        9.88200       19.86200
C         17.61200        9.76800       18.67400
N         14.91100        7.71900       20.97500
C         13.58400        7.61200       20.34300
C         12.49300        8.18800       21.22200
O         11.54400        8.77000       20.70300
C         13.25000        6.17700       19.93000
O         13.93400        5.83400       18.73300
N         12.61500        8.03100       22.54000
C         11.64100        8.59100       23.45200
C         11.73900       10.09900       23.45700
O         10.71000       10.78800       23.46700
C         11.84900        8.04400       24.85100
N         12.97100       10.62400       23.47100
C         13.17800       12.08200       23.39700
C         12.55900       12.69100       22.12000
O         11.91600       13.75300       22.16100
C         14.66000       12.43300       23.49300
N         12.73200       12.01600       20.99900
C         12.22100       12.52700       19.73100
C         10.69700       12.55200       19.70400
O         10.08200       13.52200       19.25300
C         12.75000       11.67100       18.57600
C         14.25000       11.85300       18.31700
C         14.72700       11.06300       17.10100
O         13.85600       10.48100       16.41000
O         15.95300       11.08100       16.83800
N         10.06300       11.51600       20.23800
C          8.59600       11.51400       20.30200
C          8.09400       12.66500       21.18000
O          7.14600       13.35200       20.83400
C          8.07600       10.19600       20.81600
C          6.56100       10.03700       20.86100
C          6.01800       10.08300       19.44100
C          6.08500        8.72400       21.55600
N          8.76400       12.89100       22.31900
C          8.38300       13.94400       23.25500
C          8.42700       15.26300       22.51100
O          7.47700       16.04700       22.57400
C          9.33800       14.00100       24.47800
O          9.28800       12.74300       25.17300
C          8.93200       15.08300       25.42700
N          9.47700       15.49600       21.74200
C          9.58500       16.75000       20.97400
C          8.45500       16.86900       19.93300
O          7.80800       17.88900       19.81200
C         10.92400       16.85800       20.28000
S         12.25600       17.01900       21.46300
N          8.21100       15.80800       19.18900
C          7.06000       15.74500       18.30400
C          5.74600       16.07300       18.96300
O          4.95000       16.83400       18.41500
N          5.53100       15.53800       20.16200
C          4.29800       15.78600       20.91700
C          4.29200       15.78600       20.88800
C          4.16300       17.25800       21.29200
O          3.06400       17.82600       21.22400
C          4.24000       14.92800       22.19700
C          4.17200       14.84200       22.09700
C          4.06700       13.46100       21.95300
C          3.77900       13.44800       21.68800
S          2.50200       13.00800       21.20700
S          3.46000       12.37300       23.07600
C          2.48300       11.29200       21.64300
C          2.01900       11.50600       22.46900
N          5.26600       17.88300       21.69800
C          5.25900       19.35500       21.97600
C          4.81500       20.11900       20.73200
O          4.01500       21.06100       20.81300
C          6.65800       19.85900       22.48000
C          7.00000       19.22700       23.84300
C          6.75900       21.42700       22.49900
C          8.43600       19.43500       24.32400
N          5.34500       19.74800       19.57300
C          5.01400       20.49200       18.34600
C          5.02600       20.44700       18.32200
C          3.55200       20.23900       17.99800
O          2.85100       21.12500       17.57600
C          5.93800       20.10600       17.19000
C          5.89000       19.90600       17.17700
C          7.44000       20.38400       17.46500
C          7.40500       19.98200       17.42700
S          8.51900       19.84600       16.11500
S          8.03500       21.65100       17.55700
C          9.75700       18.96200       17.07100
C          7.98400       22.11900       15.83800
N          3.09000       19.02100       18.18600
C          1.68400       18.68900       17.94800
C          0.72900       19.46000       18.84400
O         -0.34900       19.82000       18.40700
C          1.44800       17.20800       18.11000
S          2.00800       16.19700       16.69700
N          1.08000       19.64700       20.10800
C          0.27700       20.48400       21.01200
C          0.23600       21.93700       20.59700
O         -0.82400       22.58700       20.68500
C          0.79200       20.34800       22.44000
C          0.56000       18.98500       23.07000
C          1.26200       18.93500       24.41600
C         -0.95100       18.71800       23.19600
N          1.37500       22.45900       20.14700
C          1.44100       23.82900       19.69800
C          0.52400       24.11200       18.48300
O         -0.04100       25.19600       18.37000
C          2.89000       24.23500       19.40000
N          0.38300       23.16200       17.56800
C         -0.29200       23.41400       16.29500
C         -1.50600       22.52100       15.98000
O         -2.16200       22.69500       14.94900
C          0.75700       23.40300       15.17000
C          1.87600       24.41000       15.37700
C          1.32600       25.82800       15.31300
N          1.12600       26.33100       13.94200
C          2.12000       26.82300       13.20900
N          3.35800       26.87000       13.69100
N          1.89800       27.25900       11.99100
N         -1.78400       21.58100       16.87200
C         -2.89600       20.62600       16.75200
C         -2.88000       19.83400       15.45200
O         -3.88700       19.63900       14.79600
C         -4.20400       21.34600       17.03700
C         -4.24200       21.74700       18.52500
C         -5.61700       22.14000       19.01100
O         -6.26700       22.97600       18.39700
N         -6.04900       21.57100       20.16400
N         -1.71600       19.28500       15.12200
C         -1.57000       18.56300       13.85800
C         -2.47600       17.32000       13.79900
O         -3.18600       17.15200       12.81900
C         -0.12300       18.24400       13.51900
C          0.71700       19.53800       13.51600
C         -0.01900       17.61100       12.14300
C          2.25400       19.32900       13.33300
N         -2.47200       16.46700       14.84200
C         -3.36200       15.29800       14.80700
C         -4.84100       15.61800       14.61400
O         -5.55800       14.90900       13.84600
C         -3.09700       14.62700       16.16100
C         -1.67300       14.99400       16.46700
C         -1.68700       16.47700       16.08800
N         -5.31400       16.67600       15.27200
C         -6.69400       17.06600       15.14300
C         -6.98000       17.64600       13.76900
O         -8.09000       17.49600       13.23800
C         -7.05600       18.07800       16.21700
C         -6.92900       17.54600       17.65200
C         -5.61000       17.85600       18.34900
O         -4.54500       17.98300       17.72900
N         -5.67900       17.95300       19.67800
N         -6.01100       18.39700       13.24000
C         -6.18100       19.02400       11.94400
C         -6.23400       17.95900       10.84900
O         -7.07100       18.04300        9.93700
C         -5.07100       20.06200       11.70200
N         -5.43200       16.91200       10.98700
C         -5.49300       15.78300       10.04600
C         -6.84900       15.08600       10.13200
O         -7.48500       14.79800        9.10700
C         -4.34200       14.82600       10.29000
O         -3.12800       15.47200        9.95300
C         -4.46300       13.58900        9.43900
N         -7.34900       14.88500       11.35400
C         -8.65800       14.25300       11.51300
C         -9.75900       15.08900       10.87200
O        -10.64800       14.55100       10.25700
C         -8.96200       14.01300       13.00200
N         -9.67600       16.41200       11.03800
C        -10.60600       17.36400       10.46000
C        -10.62100       17.28900        8.93000
O        -11.68000       17.19500        8.30600
C        -10.18800       18.77400       10.85600
O        -11.05400       19.73300       10.30100
N         -9.42200       17.32700        8.35500
C         -9.24300       17.23000        6.90900
C         -9.82300       15.93400        6.36800
O        -10.51900       15.92200        5.33900
C         -7.77100       17.32200        6.56000
C         -7.16600       18.71500        6.79600
S         -7.63500       19.91500        5.54100
C         -6.80500       19.27600        4.07700
N         -9.56900       14.84200        7.08700
C        -10.09100       13.54000        6.67500
C        -11.61200       13.41700        6.75200
O        -12.19700       12.57600        6.06600
C         -9.38300       12.42400        7.42900
C         -7.98900       12.15200        6.90100
C         -7.31200       11.03900        7.65000
C         -5.93200       10.80400        7.11700
N         -5.96100       10.05600        5.80600
N        -12.25400       14.26100        7.55400
C        -13.71600       14.36100        7.55500
C        -14.25600       15.29500        6.46900
O        -15.47600       15.46000        6.34600
C        -14.22000       14.80400        8.92600
C        -14.32500       13.64000        9.91500
O        -14.34100       12.46300        9.48100
O        -14.42700       13.90600       11.12900
N        -13.35400       15.89000        5.68200
C        -13.71800       16.75900        4.56400
C        -13.78900       18.22100        4.94900
O        -14.27400       19.03200        4.16500
N        -13.28000       18.56000        6.14100
C        -13.42900       19.89800        6.69300
C        -12.20400       20.71100        6.30200
O        -11.14800       20.15500        6.04400
C        -13.57100       19.87700        8.21800
C        -14.76600       19.12400        8.76000
C        -14.69200       19.01200       10.29700
C        -15.74700       18.09000       10.88100
N        -15.74600       18.12800       12.37900
N        -12.36700       22.02200        6.28000
C        -11.26500       22.96900        6.06900
C        -11.41900       24.06200        7.14700
O        -12.08000       25.09200        6.91600
C        -11.37000       23.53600        4.66400
C        -10.27900       24.49500        4.22200
C        -10.34200       25.85500        4.19100
C         -8.99500       24.14100        3.69600
N         -9.17400       26.37600        3.67900
C         -8.32200       25.33900        3.39100
C         -8.36100       22.92300        3.43000
C         -7.03800       25.35700        2.86200
C         -7.08000       22.94100        2.90400
C         -6.42400       24.16000        2.63800
N        -10.85500       23.79200        8.32800
C        -11.17400       24.54700        9.55100
C        -10.04900       25.46300        9.95300
O         -9.34100       25.20000       10.90700
C        -11.45500       23.60500       10.71400
C        -12.67000       22.77800       10.55900
C        -13.01100       22.01300       11.82400
O        -12.33500       21.00500       12.12800
O        -13.97500       22.41600       12.51800
N         -9.90900       26.57700        9.27300
C         -8.77300       27.43600        9.56300
C         -8.83900       28.06400       10.95600
O         -7.86200       27.98100       11.71800
C         -8.64100       28.48100        8.47500
C         -8.37000       27.82600        7.11900
C         -7.08900       28.32200        6.54100
N         -7.11800       29.74500        6.28300
C         -6.04200       30.45700        5.97900
N         -6.15700       31.75400        5.73400
N         -4.85800       29.87300        5.90500
N         -9.99500       28.62500       11.31700
C        -10.09900       29.35200       12.57700
C         -9.91700       28.42800       13.77200
O         -9.12300       28.70900       14.70400
C        -11.42700       30.08300       12.64100
C        -11.52900       31.08600       13.77700
C        -12.80300       31.92000       13.69400
C        -12.92400       32.73100       12.39900
N        -11.66300       33.45800       12.00600
N        -10.60700       27.28800       13.74900
C        -10.48200       26.33900       14.85300
C         -9.02200       26.04500       15.24700
O         -8.71700       25.92000       16.44200
C        -11.20600       25.03700       14.51400
C        -11.19500       24.03400       15.63900
C        -12.14500       22.89000       15.37200
C        -12.07000       21.84700       16.48700
N        -13.22300       20.90700       16.43200
N         -8.12100       25.97300       14.25700
C         -6.77500       25.44800       14.49300
C         -5.66100       26.49100       14.53200
O         -4.48000       26.13700       14.38100
C         -6.45300       24.31300       13.51300
C         -7.31400       23.11700       13.69900
C         -7.35900       22.46800       14.91400
C         -8.14500       22.67300       12.67600
C         -8.18700       21.36700       15.10000
C         -8.95100       21.58800       12.86000
C         -8.97500       20.93200       14.07300
N         -6.02600       27.74500       14.80100
C         -5.06400       28.76400       15.22400
C         -4.23600       28.22200       16.39500
O         -4.78800       27.72900       17.38500
C         -5.79200       30.04000       15.63200
C         -4.89900       31.25500       15.86200
S         -4.08600       31.90900       14.37400
C         -5.21600       31.55500       13.06800
N         -2.91600       28.31400       16.27200
C         -2.01300       27.75300       17.24400
C         -1.08200       28.76300       17.87600
O         -1.34800       29.96500       17.90400
N          0.03200       28.25000       18.37700
C          1.00600       29.06300       19.06100
C          2.40300       28.69700       18.57100
O          2.67800       27.55000       18.19700
C          0.91700       28.91000       20.60500
O          1.22000       27.57800       20.95900
C         -0.48200       29.24600       21.11400
N          3.26300       29.69800       18.58300
C          4.64800       29.59900       18.17200
C          5.47400       29.18300       19.38300
O          5.25100       29.66600       20.48300
C          5.09900       30.97900       17.69900
C          6.11000       30.99100       16.62500
C          6.27800       32.37300       16.05200
O          5.95100       32.58600       14.86100
O          6.72700       33.23800       16.81600
N          6.38500       28.22800       19.19800
C          7.23900       27.77500       20.27900
C          8.34300       28.74900       20.66300
O          8.72000       28.82400       21.84900
C          7.84800       26.44200       19.89100
C          6.83800       25.32600       19.77200
C          7.59700       24.06500       19.44900
C          6.03900       25.20300       21.05700
N          8.86200       29.48300       19.68200
C          9.87000       30.49800       19.92400
C          9.42800       31.45800       21.03500
O          8.29000       31.93900       21.02300
C         10.17500       31.28300       18.65100
C         11.34200       32.21900       18.82000
O         12.42500       31.82700       19.25000
N         11.11600       33.49100       18.53500
N         10.30000       31.62000       22.02600
C         10.06000       32.49700       23.15900
C          9.32400       31.88500       24.34000
O          9.21700       32.52900       25.38100
N          8.81500       30.65600       24.19400
C          8.00800       30.03300       25.23800
C          8.92000       29.26900       26.19800
O         10.06200       28.97500       25.87200
C          6.98500       29.09400       24.60200
C          6.03100       29.76700       23.60000
C          5.27500       30.94400       24.18900
C          4.20200       31.38700       23.23800
N          4.80300       32.04700       22.03400
N          8.41400       29.01000       27.39600
C          9.13500       28.32000       28.45300
C          8.66200       26.87800       28.57600
O          7.45900       26.63500       28.68400
C          8.96500       29.06300       29.79100
O          9.58100       30.35700       29.67800
C          9.61100       28.31500       30.95900
N          9.60600       25.93200       28.47900
C          9.36400       24.49600       28.66000
C          9.95300       24.08500       29.99000
O         11.14300       24.29700       30.23600
C         10.02300       23.66900       27.52900
C         10.04000       22.14500       27.58800
C          8.62900       21.65300       27.58100
C         10.81400       21.59800       26.40500
N          9.11800       23.46500       30.82700
C          9.57400       22.92300       32.11500
C          9.80500       21.44700       31.90500
O          8.94400       20.79400       31.35200
N         10.96800       20.94800       32.32700
C         11.38200       19.56000       32.11500
C         11.60900       18.97800       33.51200
O         12.53700       19.38400       34.21000
C         12.69700       19.48100       31.27200
C         12.55200       20.23300       29.93800
C         13.06600       18.02400       31.02100
C         13.79400       20.39000       29.11400
N         10.77500       18.01700       33.91500
C         10.93100       17.37500       35.21500
C         11.55800       16.02700       35.00800
O         10.91400       15.14600       34.44600
C          9.58800       17.22400       35.91500
C          8.78000       18.50100       35.94500
C          7.44700       18.28800       36.68100
C          9.57100       19.63300       36.58800
N         12.79800       15.87400       35.47600
C         13.62200       14.72000       35.19500
C         14.62800       15.13300       34.12100
O         14.26600       15.40100       32.95900
N         15.88500       15.23600       34.53300
C         16.95300       15.68500       33.67000
C         18.02300       14.60600       33.49000
O         19.20000       14.91600       33.46400
C         17.56500       16.96300       34.22800
C         16.58800       18.13300       34.42300
C         17.30300       19.25500       35.13600
C         15.97800       18.57700       33.08600
N         17.59300       13.34700       33.37300
C         18.48400       12.26200       33.06700
C         18.61100       12.09100       31.56300
O         18.78800       13.07200       30.81500
N         18.60300       10.83200       31.12600
C         18.89900       10.49400       29.73700
C         18.00500       11.20500       28.72600
O         18.48800       11.86700       27.78100
C         18.84600        8.96800       29.52800
C         19.93300        8.19100       30.20100
C         19.64900        6.69600       30.01600
N         20.61500        5.81900       30.64800
C         20.55700        5.36700       31.90400
N         19.56300        5.70200       32.72500
N         21.52400        4.57700       32.35200
N         16.69700       11.10800       28.94500
C         15.74300       11.69000       28.02500
C         15.57900       13.17400       28.23900
O         15.58800       13.94600       27.26800
C         14.39600       10.93700       28.08400
C         14.64500        9.46900       27.66800
C         13.37700       11.67500       27.20000
C         13.48100        8.46700       28.00000
N         15.42600       13.61500       29.48600
C         15.15700       15.03500       29.73000
C         16.19200       15.96100       29.13300
O         15.86900       16.99200       28.55800
N         17.46900       15.59200       29.22700
C         18.48100       16.46100       28.63800
C         18.45200       16.47100       27.09300
O         18.81500       17.48900       26.48200
C         19.86000       16.10800       29.17900
C         20.43700       14.82700       28.61800
C         21.68100       14.45900       29.38900
N         21.42800       14.36700       30.82000
C         22.36700       14.30100       31.76100
N         23.66100       14.30100       31.43900
N         22.00400       14.23000       33.03900
N         18.00900       15.38100       26.45600
C         17.94900       15.33700       24.97300
C         16.75700       16.15500       24.47300
O         16.86700       16.88200       23.47800
C         17.91500       13.89600       24.45300
C         19.11700       13.06900       24.87100
C         20.43300       13.55600       24.33100
O         20.42900       14.31200       23.34300
O         21.49000       13.14300       24.87400
N         15.64100       16.10800       25.19700
C         14.50900       17.00900       24.93500
C         14.95400       18.46900       25.02500
O         14.66500       19.25600       24.12100
C         13.29900       16.71600       25.87400
C         12.12000       17.75500       25.65400
C         12.81000       15.23500       25.66300
N         15.73700       18.81100       26.04900
C         16.15100       20.20500       26.26900
C         16.91500       20.79100       25.08600
O         16.62700       21.89200       24.65800
C         17.00400       20.33500       27.57100
N         17.93400       20.07500       24.59900
C         18.79900       20.64500       23.54900
C         18.02400       20.78600       22.22700
O         18.17700       21.75900       21.53700
C         20.12700       19.84900       23.41800
O         19.85600       18.47700       23.05300
C         20.86500       19.91000       24.74500
N         17.13800       19.84100       21.93400
C         16.30200       19.91800       20.72600
C         15.37000       21.10900       20.81400
O         15.29500       21.93600       19.90400
C         15.58900       18.56500       20.52500
C         16.55900       17.52700       19.98700
C         16.05100       16.11700       20.24300
N         17.03100       15.09900       19.84200
C         18.21100       14.91800       20.42900
N         18.57800       15.65500       21.48300
N         19.04400       13.97700       19.98400
N         14.72300       21.27700       21.95600
C         13.72000       22.35400       22.05900
C         14.36400       23.74400       22.16200
O         13.78700       24.71300       21.74200
C         12.71500       22.05000       23.16900
C         11.88700       20.74000       22.91100
S         11.33000       20.46400       21.17100
C         10.22100       21.85800       20.99100
N         15.58000       23.82500       22.68300
C         16.35500       25.06700       22.67500
C         16.57600       25.59100       21.24000
O         16.61000       26.79400       21.01900
C         17.70100       24.84800       23.36900
C         17.64100       24.81800       24.88600
C         18.82400       24.07900       25.50200
O         19.83200       23.83100       24.83700
N         18.68000       23.66700       26.76600
N         16.74500       24.68100       20.27900
C         16.87000       25.07400       18.86000
C         15.61900       25.73300       18.27200
O         15.68800       26.38200       17.22600
C         17.27200       23.87800       17.99600
O         16.15500       23.07400       17.67800
N         14.49000       25.57200       18.94600
C         13.23700       26.23800       18.59600
C         13.08300       27.57100       19.31400
O         12.06200       28.22500       19.20400
C         12.06200       25.33100       18.93400
C         11.88900       24.21700       17.97200
C         10.97300       24.31800       16.95500
C         12.71400       23.10000       18.01200
C         10.81900       23.28700       16.03000
C         12.56500       22.09300       17.09200
C         11.60500       22.20400       16.09500
N         14.09500       27.96200       20.08000
C         14.01100       29.17300       20.85500
C         13.22200       29.08200       22.14200
O         12.80500       30.10600       22.68100
N         13.01300       27.87400       22.64500
C         12.34300       27.70500       23.92500
C         13.30600       27.90100       25.07800
O         14.46800       27.49200       25.01700
C         11.71800       26.32800       24.01400
C         10.63300       26.05300       22.98300
S          9.63700       24.57600       23.34200
C          8.40200       25.40200       24.40600
N         12.83000       28.57500       26.12600
C         13.55700       28.64400       27.38500
C         13.30700       27.32100       28.13100
O         12.16500       26.86900       28.25000
C         13.08000       29.87200       28.18500
C         13.44900       29.82400       29.64900
C         13.02100       31.06800       30.42800
C         13.61400       31.04800       31.83200
N         15.08400       30.71900       31.80300
N         14.36600       26.61900       28.53000
C         14.19500       25.31600       29.16300
C         14.62900       25.36800       30.61700
O         15.80400       25.62700       30.91400
C         14.99900       24.24600       28.43400
O         16.38700       24.63100       28.36700
C         14.47100       24.05900       27.02800
N         13.67900       25.16400       31.52100
C         13.93300       25.17900       32.94100
C         13.53300       23.80900       33.40300
O         12.84300       23.09000       32.68900
C         13.14900       26.29000       33.72000
C         11.61600       26.13700       33.58400
C         13.57000       27.67700       33.26200
C         10.80100       27.17100       34.34800
N         13.94300       23.43700       34.60500
C         13.54800       22.13200       35.10700
C         13.99400       21.78100       36.50300
O         14.45800       22.63000       37.25100
N         13.80800       20.51400       36.85800
C         14.08200       20.05200       38.21100
C         14.46600       18.58600       38.19100
O         13.84400       17.78300       37.50400
C         12.88200       20.27000       39.14900
C         13.17700       19.70700       40.51900
C         14.22900       20.22000       41.27600
C         12.49700       18.59800       41.00800
C         14.57200       19.69000       42.52100
C         12.80200       18.07600       42.27400
C         13.85800       18.61700       43.01200
O         14.22500       18.13200       44.26600
N         15.53900       18.26100       38.91800
C         15.93000       16.89000       39.12600
C         16.63500       16.81800       40.47400
O         17.60300       17.54200       40.69400
C         16.86700       16.43600       38.02700
C         17.10500       14.95200       38.04600
O         17.46500       14.40000       39.10100
O         16.94300       14.33400       36.98400
N         16.17800       15.92800       41.36600
C         16.81900       15.85200       42.68500
C         18.31300       15.43700       42.70600
O         19.02500       15.82800       43.63300
C         15.97600       14.81200       43.43400
C         14.86800       14.42500       42.55800
C         15.07400       14.97200       41.21100
N         18.76100       14.63900       41.73200
C         20.13600       14.11400       41.67900
C         21.08600       14.94600       40.79700
O         22.29300       14.95300       40.99900
C         20.16000       12.64300       41.17000
C         19.22100       11.77700       42.02000
C         21.57100       12.08600       41.24200
C         19.39600       10.24200       41.84200
N         20.55400       15.63000       39.79900
C         21.39500       16.32200       38.84500
C         21.75600       17.67800       39.40800
O         20.89000       18.47500       39.74600
C         20.68800       16.47100       37.47400
C         20.34500       15.08200       36.91100
C         21.55600       17.26300       36.49800
C         21.51900       14.16000       36.69000
N         23.04900       17.95100       39.50000
C         23.49700       19.22700       40.01300
C         23.10900       20.36000       39.07000
O         22.93900       20.15800       37.86400
C         25.01400       19.22700       40.19300
O         25.64900       19.20300       38.92500
N         22.97400       21.57000       39.61700
C         22.77400       22.73300       38.74800
C         23.85000       22.87600       37.68900
O         23.57300       23.36500       36.59400
C         22.83700       23.91300       39.71700
C         22.44100       23.33000       41.05000
C         22.98200       21.92800       41.04700
N         25.07000       22.43500       38.01500
C         26.20400       22.60800       37.11500
C         26.10300       21.65700       35.93100
O         26.40400       22.02400       34.77700
C         27.52700       22.40600       37.86200
C         27.85700       23.53100       38.88600
C         27.13500       23.39100       40.25000
O         26.40800       22.40000       40.47100
O         27.33600       24.26200       41.13000
N         25.66700       20.43600       36.19800
C         25.45900       19.48500       35.12500
C         24.31900       19.96200       34.20200
O         24.49200       19.98900       32.97600
C         25.18000       18.08800       35.66700
C         24.71000       17.17300       34.54400
C         26.42200       17.54000       36.35800
N         23.18900       20.40000       34.76700
C         22.06800       20.86800       33.93400
C         22.42000       22.14100       33.14800
O         21.98800       22.28900       32.01200
C         20.75700       21.06500       34.73900
O         20.81200       22.14900       35.65400
N         23.21800       23.04100       33.73000
C         23.65700       24.23200       33.00300
C         24.42300       23.84600       31.73700
O         24.33100       24.52000       30.71600
C         24.50400       25.12100       33.88100
N         25.13700       22.72600       31.78000
C         25.93800       22.30200       30.63200
C         25.09000       21.91500       29.41400
O         25.60500       21.88500       28.29000
C         26.89300       21.17100       31.03900
O         26.21900       19.93100       31.06700
N         23.80700       21.60800       29.62600
C         22.85400       21.41600       28.53500
C         21.72800       22.45500       28.57000
O         20.61000       22.20200       28.09800
C         22.33600       19.96000       28.41600
C         21.85800       19.31400       29.70600
C         20.56300       19.48300       30.15300
C         22.67700       18.45600       30.42500
C         20.12300       18.84300       31.31500
C         22.23300       17.83200       31.59200
C         20.96300       18.01400       32.02900
N         22.04700       23.62600       29.10600
C         21.17900       24.79900       29.00300
C         19.86700       24.74500       29.77200
O         18.91300       25.47000       29.44500
N         19.80700       23.93900       30.82700
C         18.61500       23.89300       31.67900
C         18.88500       24.53700       33.03900
O         19.72800       24.05100       33.82000
C         18.11000       22.43200       31.86100
C         16.96400       22.37900       32.86500
C         17.70200       21.83600       30.52500
N         18.15900       25.61800       33.32800
C         18.20400       26.26600       34.63500
C         17.31800       25.50200       35.60400
O         16.12900       25.39300       35.37600
C         17.69900       27.70100       34.53100
C         17.87200       28.52000       35.80900
C         17.08300       29.81800       35.79400
O         16.42100       30.14900       34.81200
N         17.15800       30.56100       36.88800
N         17.88500       24.99200       36.68600
C         17.06900       24.34600       37.69800
C         16.51500       25.34100       38.68700
O         17.20600       26.29400       39.08600
C         17.82400       23.24200       38.41300
C         17.90500       21.97100       37.58700
C         18.55700       20.84600       38.32200
O         17.94600       20.23000       39.19200
N         19.81400       20.55300       37.97800
N         15.26700       25.10900       39.07700
C         14.57200       25.89800       40.09800
C         13.78400       24.91400       40.97700
O         13.52900       23.79200       40.57300
C         13.57500       26.87600       39.45300
C         14.07500       27.90200       38.44100
C         12.89000       28.59300       37.78000
C         14.97800       28.91000       39.10100
N         13.34200       25.35400       42.15800
C         12.42500       24.50600       42.92700
C         11.09100       24.35900       42.19700
O         10.71300       25.26100       41.47300
C         12.21700       25.29200       44.22500
C         13.25900       26.37300       44.22700
C         13.61700       26.63700       42.81300
N         10.37300       23.25500       42.38500
C          9.10500       23.05200       41.67600
C          8.13100       24.20300       41.78800
O          7.46300       24.57500       40.82000
C          8.38900       21.80900       42.18600
C          8.95800       20.48600       41.73100
C          8.10700       19.38700       42.35400
C          8.94300       20.42200       40.20400
N          8.01700       24.74100       42.99900
C          7.08600       25.81900       43.25400
C          7.33500       27.04100       42.35600
O          6.40300       27.76900       42.04500
C          7.09500       26.20900       44.74600
C          8.45500       26.60900       45.30200
C          9.22800       25.46600       45.95400
O          9.17300       24.30500       45.46400
O          9.91700       25.74300       46.96800
N          8.58200       27.25700       41.94100
C          8.90700       28.37100       41.04900
C          8.72300       28.00600       39.58100
O          8.58600       28.88800       38.73200
C         10.33400       28.84800       41.30200
C         10.56700       29.18600       42.74100
C         11.81800       30.01300       42.97300
O         12.51700       30.33600       41.99500
O         12.08600       30.34300       44.14900
N          8.69900       26.71300       39.28300
C          8.59100       26.27600       37.91100
C          7.17200       26.42700       37.40200
O          6.96100       26.91100       36.28700
C          9.02400       24.81700       37.75400
C         10.53200       24.67800       38.01000
C          8.68000       24.32100       36.36300
C         11.03600       23.24400       37.91800
N          6.19600       26.01000       38.21000
C          4.80500       25.95200       37.73600
C          4.32200       27.21400       37.05200
O          3.84700       27.13900       35.91200
C          3.81600       25.54500       38.84200
C          4.20000       24.32200       39.60000
C          4.39500       24.23100       40.94800
C          4.41500       23.01000       39.07500
N          4.72400       22.95400       41.29100
C          4.73800       22.17700       40.16600
C          4.34900       22.45100       37.79300
C          5.01200       20.83100       40.01300
C          4.61600       21.09700       37.64100
C          4.95800       20.30800       38.75100
N          4.43400       28.38500       37.72800
C          3.86700       29.60500       37.13700
C          4.62000       30.14400       35.91200
O          4.12100       31.06300       35.25800
C          3.90900       30.59800       38.29100
C          5.01400       30.13100       39.16200
C          5.00500       28.64500       39.06600
N          5.78100       29.56900       35.60100
C          6.59400       30.04900       34.47600
C          6.32400       29.31400       33.15700
O          6.67300       29.83200       32.08800
C          8.09000       29.95600       34.80300
C          8.68200       30.80700       35.90600
C         10.15500       30.42700       36.11200
C          8.51700       32.30800       35.61800
N          5.77400       28.09900       33.20500
C          5.78000       27.25700       32.03600
C          4.59300       27.42700       31.09900
O          3.46400       27.49700       31.53000
C          5.82200       25.78500       32.42700
S          7.30200       25.31900       33.31100
N          4.89100       27.42500       29.81000
C          3.89200       27.31300       28.75300
C          3.65800       25.87500       28.43300
O          2.52100       25.46800       28.07100
C          4.36300       28.06000       27.52300
C          4.54400       29.52200       27.79600
O          3.51600       30.18100       28.09800
O          5.69200       30.02600       27.74800
N          4.73900       25.11200       28.54500
C          4.72400       23.67400       28.33900
C          5.45900       22.96600       29.47400
O          6.44900       23.48300       29.96400
C          5.40900       23.29300       27.02700
C          4.74000       23.84100       25.79800
C          3.95100       23.01600       25.02400
C          4.93300       25.17000       25.40100
C          3.35200       23.48100       23.87900
C          4.35400       25.64900       24.25300
C          3.54500       24.83500       23.48900
N          4.98200       21.77500       29.86000
C          5.60300       20.90300       30.88200
C          5.72800       19.48400       30.34800
O          4.74800       18.92700       29.84900
C          4.80200       20.83700       32.21500
C          4.49300       22.24300       32.71300
C          5.55200       20.06100       33.28100
C          3.72600       22.30600       33.99700
N          6.91100       18.90200       30.50100
C          7.13700       17.53500       30.09400
C          7.81200       16.76200       31.22000
O          8.69200       17.28400       31.88700
C          7.91400       17.47300       28.76300
O          8.00900       16.09900       28.33000
C          9.33100       18.06100       28.87200
N          7.38100       15.52400       31.44500
C          7.90100       14.71400       32.53200
C          8.76400       13.55400       32.02700
O          8.41800       12.83400       31.07500
C          6.79000       14.21300       33.48100
C          6.12500       15.42300       34.19200
C          5.77100       13.35300       32.72500
N          9.93600       13.41700       32.63200
C         10.89000       12.35700       32.27900
C         11.55000       11.73900       33.49400
O         12.76400       11.69500       33.59500
C         11.94200       12.93600       31.33000
C         11.34200       13.49400       30.09400
N         10.83700       12.69300       29.11300
C         11.07600       14.76700       29.71500
C         10.29900       13.43500       28.16300
N         10.42300       14.70100       28.51000
N         10.71300       11.27500       34.42200
C         11.13200       10.67400       35.66800
C         10.72000        9.20800       35.66400
O          9.83200        8.79900       34.92200
C         10.41600       11.33200       36.89300
O          9.00400       11.06600       36.84500
C         10.58000       12.82400       36.87500
N         11.32200        8.42600       36.54700
C         10.76900        7.09800       36.83100
C          9.41400        7.22300       37.49400
O          9.06100        8.29200       37.96400
C         11.77300        6.50200       37.80700
C         12.50500        7.65300       38.34900
C         12.52400        8.70400       37.33400
N          8.64500        6.15000       37.52400
C          7.42000        6.13200       38.31300
C          7.74100        5.60900       39.71000
O          8.18200        4.48000       39.87500
C          6.33500        5.28700       37.63400
C          4.99000        5.20800       38.35800
C          4.23100        6.54400       38.32300
C          4.13700        4.10600       37.75100
N          7.55100        6.46600       40.71100
C          7.86300        6.18200       42.11400
C          6.75300        6.79900       42.94100
O          6.02900        7.64200       42.43100
C          9.15500        6.88300       42.52600
C         10.42300        6.56800       41.72900
C         11.49800        7.63400       41.95000
C         10.88900        5.23700       42.10900
N          6.62500        6.41000       44.22500
C          5.66000        7.15800       45.05500
C          5.84000        8.68000       44.96800
O          4.84600        9.42600       44.84000
C          5.92400        6.62400       46.46800
C          6.46300        5.21200       46.23000
C          7.26800        5.30500       44.96300
N          7.09000        9.12700       44.99400
C          7.40600       10.55000       44.96500
C          7.12900       11.22200       43.63300
O          7.06700       12.45700       43.57400
C          8.85200       10.78000       45.40200
O          9.73500       10.00000       44.63300
N          6.93000       10.46100       42.55100
C          6.59500       11.06700       41.26900
C          5.17000       10.76600       40.78000
O          4.78400       11.19900       39.68800
C          7.58000       10.65300       40.17500
O          7.48400        9.24700       39.96900
C          8.97200       11.05200       40.54400
N          4.38100       10.03600       41.57000
C          2.99600        9.75000       41.19900
C          2.15700       10.98200       41.49000
O          2.12500       11.47200       42.60800
C          2.44300        8.54700       41.94000
O          3.31600        7.43300       41.74800
C          1.05500        8.20700       41.44700
N          1.49800       11.50100       40.46800
C          0.79300       12.75100       40.61700
C          1.73700       13.91600       40.83000
O          1.38100       14.89100       41.48800
N          2.93100       13.83100       40.24900
C          3.86000       14.96100       40.16700
C          3.09800       16.18500       39.67300
O          3.21600       17.27200       40.25600
C          5.01800       14.63100       39.22200
C          6.28900       15.46600       39.38900
C          6.79600       15.42400       40.80800
C          7.35500       14.98700       38.38500
N          2.30100       16.00100       38.61700
C          1.28200       16.98800       38.25300
C          1.27400       16.97500       38.22000
C         -0.05800       16.47300       38.73900
O         -0.48600       15.40000       38.36200
C          1.22600       17.27500       36.74400
C          1.17800       17.13400       36.69200
C          2.31600       18.22800       36.23100
C          2.05600       18.19100       36.01300
C          3.63300       17.49800       36.15100
C          2.14200       17.91200       34.51800
C          1.95800       18.83200       34.87100
C          1.52800       19.59700       36.27300
N         -0.70500       17.25600       39.58700
C         -2.02300       16.88400       40.11000
C         -2.85300       18.15000       40.34000
O         -2.48900       19.21500       39.84100
C         -1.85700       16.01100       41.35200
C         -1.13800       16.71500       42.46500
O         -1.04300       17.94300       42.48000
N         -0.64400       15.93600       43.43800
N         -3.95800       18.07600       41.06600
C         -4.80700       19.28500       41.15500
C         -4.08900       20.47300       41.78800
O         -4.26400       21.62900       41.37900
C         -6.09400       18.99900       41.89700
C         -6.94000       17.97900       41.19800
O         -7.62100       18.35800       40.21800
O         -6.96000       16.81900       41.67200
N         -3.26300       20.17300       42.78800
C         -2.52400       21.17300       43.51300
C         -1.47700       21.86700       42.65000
O         -1.27500       23.08300       42.76900
C         -1.82600       20.49300       44.70300
C         -0.87900       21.39400       45.41200
O          0.34200       21.31000       45.22400
N         -1.41900       22.28900       46.21400
N         -0.79500       21.09100       41.80300
C          0.21400       21.68100       40.97100
C         -0.39300       22.34200       39.72600
O          0.05900       23.40100       39.32300
C          1.35900       20.70200       40.72500
O          0.87500       19.46900       40.19900
C          2.04600       20.45100       42.05700
N         -1.44800       21.76200       39.16400
C         -2.18100       22.45900       38.07800
C         -2.68300       23.82200       38.51300
O         -2.66200       24.76400       37.71200
C         -3.33400       21.62100       37.55100
C         -2.93700       20.66100       36.47600
C         -2.44000       21.11900       35.25900
C         -3.07300       19.29700       36.66700
C         -2.08300       20.22500       34.27300
C         -2.72300       18.41200       35.68000
C         -2.23300       18.86800       34.48700
N         -3.10000       23.94300       39.78200
C         -3.58900       25.19800       40.31000
C         -2.53400       26.29400       40.26200
O         -2.87800       27.47400       40.23800
C         -4.09800       25.02500       41.73500
N         -1.26700       25.90000       40.28900
C         -0.14300       26.82600       40.34800
C          0.41600       27.17300       38.97200
O          1.22600       28.10600       38.82900
C          0.97100       26.21000       41.21800
C          0.56000       25.94900       42.66300
C          1.62400       25.21500       43.43700
O          2.70700       25.74800       43.66100
N          1.34200       23.97000       43.82900
N         -0.01100       26.41900       37.96700
C          0.40700       26.64300       36.58800
C         -0.23600       27.85900       35.95900
O         -1.25400       28.36000       36.42000
C          0.09300       25.41900       35.72700
S          1.09300       24.01900       36.06600
N          0.36800       28.30200       34.86800
C         -0.16200       29.35400       34.03200
C         -1.42300       28.83700       33.31800
O         -1.43200       27.71300       32.82600
C          0.92500       29.76200       33.03400
C          0.54800       30.88500       32.11300
C          1.74000       31.78200       31.74400
C          2.92700       31.02900       31.24900
N          3.86600       31.99500       30.58300
N         -2.48700       29.62600       33.26500
C         -3.71300       29.16900       32.61100
C         -3.41500       28.92300       31.14100
O         -2.87100       29.79500       30.47200
C         -4.85700       30.17700       32.73700
C         -6.18500       29.63400       32.17100
C         -7.38200       30.57400       32.40100
C         -8.62800       30.07500       31.64600
N         -9.81600       30.91900       31.86000
N         -3.74000       27.72900       30.66200
C         -3.48800       27.33300       29.26700
C         -2.21400       26.53100       29.07100
O         -1.76600       26.32600       27.94400
N         -1.62400       26.04800       30.16500
C         -0.40600       25.24500       30.07000
C         -0.70100       23.99100       29.24800
O         -1.82800       23.46900       29.26700
C          0.13100       24.85500       31.46900
C         -0.81300       23.86200       32.16700
C          1.53600       24.27300       31.38200
N          0.30000       23.54400       28.49600
C          0.23300       22.32800       27.71900
C          1.20200       21.31900       28.31700
O          2.33800       21.67200       28.66600
C          0.50800       22.63300       26.25000
C         -0.57800       23.50600       25.62900
C         -0.14700       23.97800       24.24700
N         -1.24800       24.60200       23.51800
C         -1.64600       25.85000       23.68900
N         -1.03400       26.63100       24.56600
N         -2.68000       26.32100       22.98700
N          0.74700       20.06000       28.48200
C          1.57800       19.06000       29.14800
C          1.50200       19.03500       29.19600
C          1.77600       17.79500       28.33200
O          0.91800       17.36900       27.56900
C          1.02800       18.68300       30.54000
C          0.72100       18.58300       30.46500
C          1.03300       19.91000       31.44200
C          1.59500       17.74100       31.34400
C         -0.37600       18.09400       30.42000
C          0.18000       19.80900       31.24900
N          2.94700       17.19600       28.50200
C          3.33400       16.00300       27.79100
C          3.71400       14.93900       28.81600
O          4.48900       15.18800       29.74100
C          4.54800       16.29000       26.86000
C          5.00600       14.98500       26.21000
C          4.18600       17.40700       25.83400
N          3.15100       13.75100       28.68000
C          3.65100       12.59700       29.42300
C          3.99500       11.43800       28.48300
O          3.12400       10.65800       28.07500
C          2.66400       12.12700       30.52100
C          3.26300       11.02400       31.41400
O          4.45700       10.69300       31.30600
N          2.43500       10.43800       32.29300
N          5.28200       11.34400       28.16700
C          5.87000       10.19200       27.46800
C          6.79900        9.42800       28.40300
O          7.73400        8.75100       27.95600
C          6.65600       10.67600       26.22800
S          5.62500       11.36500       24.94900
N          6.52600        9.48300       29.70600
C          7.32100        8.74600       30.69400
C          6.58800        7.47700       31.18900
O          6.79400        6.37800       30.65500
C          7.66500        9.67700       31.86400
N          5.77400        7.62500       32.21800
C          4.97300        6.50800       32.76300
C          3.61600        7.01000       33.15200
O          3.47800        8.13600       33.60000
C          5.64900        5.88200       33.96000
C          6.76400        4.99600       33.57900
C          6.21600        3.75200       32.93600
N          7.25100        2.76900       32.65800
C          7.95000        2.71800       31.52800
N          7.76500        3.61500       30.58400
N          8.85600        1.75800       31.36300
N          2.60500        6.17500       32.96000
C          1.25700        6.57900       33.29100
C          1.16600        6.83700       34.77900
O          1.69600        6.07100       35.56200
N          0.53800        7.93200       35.17600
C          0.35400        8.19900       36.60500
C          1.21800        9.31500       37.14700
O          0.91100        9.87800       38.20000
N          2.30600        9.64400       36.44400
C          3.14400       10.76700       36.84000
C          2.35000       12.06600       36.70800
O          2.42600       12.94100       37.56800
C          4.45400       10.82600       36.02100
C          5.30100        9.58000       36.28200
C          5.23900       12.10000       36.31100
C          6.54800        9.51500       35.43000
N          1.56900       12.18100       35.63700
C          0.50100       13.18200       35.56900
C         -0.77200       12.47800       36.05100
O         -1.15500       11.40300       35.53800
C          0.29800       13.76500       34.15100
C         -0.80500       14.87100       34.18400
C          1.58600       14.30900       33.60000
N         -1.41100       13.02800       37.09000
C         -2.60500       12.38800       37.62800
C         -3.71900       12.58100       36.59500
O         -4.01200       13.71600       36.19800
C         -3.03200       12.98100       38.96400
C         -4.27800       12.33300       39.50600
O         -4.14100       11.31800       40.21200
O         -5.38900       12.82100       39.24000
N         -4.29900       11.46800       36.16400
C         -5.22900       11.46100       35.03200
C         -6.53600       12.14800       35.35800
O         -7.07800       12.84600       34.50700
C         -5.45600       10.03900       34.52000
C         -4.20300        9.46500       33.89400
C         -4.38500        8.06600       33.34700
O         -5.48800        7.48400       33.48300
O         -3.41400        7.54400       32.77000
N         -7.04500       11.97100       36.57700
C         -8.23500       12.70900       37.00000
C         -8.02000       14.22100       37.08000
O         -8.87600       15.00200       36.67800
N         -6.86400       14.62600       37.57900
C         -6.50800       16.03600       37.69700
C         -6.36600       16.64000       36.31800
O         -6.75100       17.78600       36.08700
C         -5.17700       16.20100       38.45800
N         -5.75000       15.87700       35.42000
C         -5.54000       16.34300       34.06400
C         -6.87800       16.58100       33.39400
O         -7.06300       17.60300       32.72700
C         -4.71900       15.35100       33.25900
C         -4.52900       15.68600       31.78400
C         -4.00700       17.12500       31.58700
C         -3.58000       14.71400       31.11100
N         -7.82500       15.67000       33.57000
C         -9.12200       15.87200       32.93200
C         -9.79500       17.12000       33.50100
O        -10.35800       17.90900       32.75600
C        -10.00700       14.64800       33.08600
C        -11.41500       14.81700       32.47600
C        -11.32500       15.10500       30.98100
C        -12.25900       13.60000       32.76200
N         -9.74100       17.31700       34.81800
C        -10.33300       18.51400       35.40600
C         -9.65900       19.79700       34.85900
O        -10.31800       20.82600       34.64900
C        -10.25200       18.46900       36.93200
C        -11.31600       17.58200       37.59900
C        -11.21300       17.61400       39.11000
N        -10.04200       16.91700       39.61900
C         -9.97800       15.60200       39.80400
N        -11.00000       14.82400       39.49500
N         -8.87500       15.05800       40.27900
N         -8.36400       19.74400       34.64300
C         -7.63200       20.89900       34.11800
C         -8.00200       21.19800       32.65900
O         -8.08600       22.36600       32.22900
C         -6.13000       20.65800       34.25000
N         -8.18200       20.15000       31.87700
C         -8.61000       20.28700       30.48700
C        -10.03400       20.87100       30.41600
O        -10.31800       21.76600       29.61900
C         -8.53200       18.92400       29.78900
C         -7.13600       18.42300       29.40500
C         -7.14300       16.93800       29.13800
C         -6.59500       19.16100       28.19400
N        -10.90300       20.40600       31.30800
C        -12.29200       20.84500       31.38800
C        -12.43600       22.32700       31.70800
O        -13.33300       22.97900       31.20500
C        -13.05200       19.98800       32.42400
C        -13.36700       18.60200       31.87500
C        -13.93400       17.62900       32.88300
O        -13.71800       17.74300       34.09500
N        -14.69300       16.64500       32.37800
N        -11.56700       22.86300       32.55600
C        -11.68100       24.26800       32.98100
C        -10.89600       25.20600       32.07200
O        -11.10100       26.42800       32.11600
C        -11.15600       24.44200       34.38500
O         -9.74100       24.28000       34.38600
N         -9.99600       24.65200       31.28000
C         -9.12000       25.45400       30.41900
C         -7.80000       25.77100       31.08800
O         -6.89200       26.34800       30.47400
N         -7.66000       25.34600       32.33700
C         -6.39400       25.50900       33.03100
C         -5.26900       24.83500       32.25200
O         -4.17400       25.37600       32.18800
C         -6.48100       24.97900       34.47000
C         -5.21300       25.23500       35.30900
C         -4.97600       26.72500       35.55700
O         -5.83600       27.57500       35.26500
N         -3.81600       27.04900       36.08200
N         -5.53800       23.65700       31.68500
C         -4.67200       23.02500       30.69800
C         -5.35500       23.13500       29.34100
O         -6.51700       22.76500       29.19000
C         -4.45900       21.57900       31.07100
S         -3.47900       20.60600       29.95000
N         -4.64400       23.68000       28.36800
C         -5.18200       23.84900       27.02400
C         -5.02800       22.60500       26.15400
O         -5.68700       22.49700       25.12700
C         -4.50600       25.05600       26.32600
N         -4.17000       21.67600       26.55100
C         -3.94800       20.42900       25.80600
C         -2.92100       19.55000       26.43900
O         -2.06300       20.02400       27.17200
N         -2.97900       18.25200       26.11800
C         -2.04500       17.28200       26.63200
C         -1.76500       16.21300       25.60600
O         -2.58100       15.92100       24.75400
C         -2.57000       16.64800       27.92500
N         -0.59400       15.63500       25.70700
C         -0.13300       14.58500       24.80400
C          0.33100       13.43700       25.67100
O          1.21500       13.61000       26.49800
C          1.01700       15.11100       23.92900
N         -0.27200       12.26900       25.49000
C         -0.05400       11.15200       26.39100
C          0.38000        9.92100       25.58900
O         -0.37900        9.47000       24.73700
C         -1.36800       10.84700       27.14100
C         -1.94100       11.95300       28.02000
C         -3.26100       11.53700       28.63400
C         -0.94700       12.34100       29.12500
N          1.59200        9.42500       25.83400
C          2.06300        8.12800       25.29400
C          1.78900        6.99200       26.25700
O          1.85600        5.83300       25.89000
C          3.58800        8.19100       25.02400
C          4.12100        7.01900       24.17700
O          3.47600        6.69300       23.15300
O          5.19600        6.42400       24.50600
N          1.46500        7.31600       27.50300
C          1.45600        6.33000       28.57200
C          0.26600        6.55700       29.48000
O         -0.22700        7.67700       29.57700
C          2.77800        6.37100       29.39500
C          3.94600        5.87600       28.56200
C          3.05800        7.77600       29.91700
N         -0.22800        5.47500       30.09400
C         -1.42800        5.51300       30.91500
C         -1.32900        4.60800       32.13000
O         -0.58400        3.62000       32.12800
C         -2.66500        5.12400       30.07900
C         -2.73400        5.82100       28.76100
C         -3.43000        7.01000       28.62800
C         -2.03200        5.32600       27.66700
C         -3.47100        7.67000       27.40500
C         -2.05300        5.97800       26.44900
C         -2.75900        7.15000       26.31400
N         -2.08200        4.92600       33.17900
C         -2.02000        4.09900       34.40300
C         -2.45200        2.67800       34.13600
O         -2.05100        1.75800       34.84100
C         -2.86000        4.66400       35.54400
O         -4.24100        4.65000       35.16700
C         -2.42300        6.08200       35.85900
N         -3.30100        2.50000       33.13000
C         -3.65400        1.19000       32.62000
C         -3.44500        1.16400       31.10400
O         -3.90400        2.06900       30.42200
C         -5.12200        0.95200       32.94000
C         -5.61500       -0.40800       32.62100
C         -7.06800       -0.56200       33.00700
O         -7.84300        0.39800       32.76900
O         -7.43400       -1.63200       33.53300
N         -2.79700        0.11900       30.58000
C         -2.50700        0.02500       29.14000
C         -2.92500       -1.30300       28.51400
O         -2.31500       -2.29900       28.80100
C         -1.01600        0.21700       28.90100
C         -0.60200        1.63600       29.04400
C          0.89200        1.85900       28.93400
O          1.65100        0.95900       28.50300
O          1.32500        2.95700       29.30100
N         -3.91700       -1.29400       27.60800
C         -4.64600       -0.13200       27.12700
C         -5.57400        0.40400       28.19400
O         -6.02900       -0.35800       29.03200
C         -5.45800       -0.68300       25.95300
C         -4.91400       -2.02900       25.69000
C         -4.40000       -2.51900       26.95800
N         -5.83000        1.71700       28.18300
C         -6.69000        2.27300       29.21000
C         -8.14300        1.92200       29.00900
O         -8.62200        1.91500       27.87600
C         -6.49800        3.77100       29.05200
C         -6.06000        3.95500       27.65500
C         -5.30800        2.75100       27.27300
N         -8.82800        1.61700       30.10600
C        -10.24000        1.28300       30.04700
C        -11.08800        2.54500       30.18400
O        -12.20000        2.61400       29.64200
C        -10.59900        0.25700       31.13200
C         -9.90200       -1.08600       30.94700
C        -10.65500       -2.20000       31.62000
N        -11.74600       -2.65700       30.76100
C        -12.61600       -3.60500       31.09000
N        -12.54100       -4.20600       32.27600
N        -13.57200       -3.95400       30.23200
N        -10.56900        3.53000       30.91800
C        -11.20500        4.83900       31.02700
C        -10.80800        5.65700       29.79600
O         -9.61500        5.87600       29.55800
C        -10.74900        5.55300       32.30000
C        -11.66400        6.69700       32.68400
O        -11.96500        7.54900       31.82300
O        -12.07600        6.74900       33.85800
N        -11.80500        6.10600       29.03200
C        -11.56300        6.76500       27.73700
C        -11.75000        8.28200       27.73100
O        -11.55700        8.91900       26.69400
C        -12.48800        6.14000       26.68800
C        -12.45300        4.62300       26.65500
C        -11.04300        4.05500       26.43000
N        -10.49700        4.36000       25.10600
C         -9.31900        3.93200       24.64900
N         -8.92400        4.24300       23.42500
N         -8.53000        3.18000       25.40000
N        -12.09500        8.86100       28.88000
C        -12.37600       10.29300       28.98200
C        -11.23800       11.18900       28.49100
O        -11.47800       12.14500       27.73900
C        -12.76400       10.65700       30.42400
N        -10.00400       10.88600       28.89500
C         -8.85400       11.64800       28.43300
C         -8.59400       11.43800       26.94600
O         -8.48000       12.40000       26.20600
C         -7.58200       11.28900       29.21600
C         -7.48000       11.93800       30.58300
C         -6.20900       11.44700       31.29300
C         -7.46700       13.46700       30.42000
N         -8.48000       10.18300       26.51400
C         -8.21100        9.86900       25.10400
C         -9.24800       10.54700       24.20300
O         -8.92800       11.08500       23.14500
C         -8.22400        8.32800       24.88400
C         -8.33000        7.97200       23.40900
C         -6.96700        7.67600       25.51200
N        -10.49900       10.53500       24.64700
C        -11.58000       11.09300       23.83700
C        -11.66800       12.61800       23.84400
O        -12.44100       13.17900       23.07800
C        -12.92000       10.52100       24.28900
C        -13.06200        9.04600       23.97600
O        -12.26800        8.52300       23.15200
O        -13.99600        8.42100       24.53900
N        -10.90600       13.28900       24.70000
C        -10.99900       14.73900       24.79900
C        -10.37000       15.37300       23.55200
O         -9.34500       14.92800       23.06800
C        -10.35000       15.26000       26.09100
C        -10.70100       16.68800       26.41500
N        -10.12300       17.75800       25.76100
C        -11.54900       17.21800       27.32600
C        -10.61300       18.88300       26.25300
N        -11.47800       18.58500       27.20600
N        -11.04200       16.39800       23.03300
C        -10.65800       17.11400       21.82500
C        -10.61800       17.04800       21.78900
C         -9.21600       17.65200       21.85400
O         -8.54100       17.73100       20.83400
C        -11.68200       18.25700       21.58500
C        -11.65000       18.09700       21.32200
C        -12.22900       18.96700       22.86500
C        -11.67000       19.40900       22.09200
C        -13.52700       18.35100       23.45000
C        -12.69800       20.38200       21.54600
O        -13.55500       17.15800       23.85700
O        -13.27000       21.14900       22.34200
O        -14.54400       19.08200       23.53600
O        -12.94300       20.36800       20.32700
N         -8.75500       18.02300       23.04500
C         -7.45500       18.64200       23.23300
C         -6.36600       17.67600       23.66400
O         -5.27600       18.08700       24.04700
C         -7.56200       19.79200       24.23300
C         -8.42900       20.91200       23.72500
O         -8.53100       21.12200       22.50400
N         -9.07500       21.64500       24.64800
N         -6.66100       16.38400       23.61000
C         -5.69600       15.38000       23.98900
C         -5.23100       14.61100       22.75700
O         -6.04900       14.15200       21.96400
C         -6.25900       14.38000       25.03100
C         -5.30300       13.23200       25.23400
C         -6.56100       15.09200       26.36700
N         -3.91100       14.53400       22.61400
C         -3.21800       13.77300       21.59000
C         -2.67200       12.54100       22.29200
O         -2.28600       12.59900       23.44800
C         -2.09100       14.66700       20.98400
C         -2.74600       15.74300       20.13900
C         -1.08200       13.86200       20.18500
C         -1.86600       16.99800       20.07000
N         -2.71000       11.39000       21.64000
C         -2.26200       10.16800       22.28200
C         -1.67200        9.20500       21.31100
O         -1.88000        9.31500       20.10500
C         -3.39000        9.47200       23.05700
O         -4.48300        9.13100       22.22900
N         -0.90500        8.28100       21.87500
C         -0.26300        7.17400       21.15500
C         -0.41500        7.14100       21.12100
C         -0.30600        5.93500       22.04300
O         -0.31600        6.06000       23.29800
C          1.20100        7.49700       20.86700
C          0.91200        7.46000       20.45800
S          1.49400        8.88400       19.78400
S          2.22700        7.54900       21.60800
N         -0.28500        4.73900       21.44100
C         -0.22300        3.55700       22.27300
C          1.19400        3.19300       22.74800
O          1.76500        2.16200       22.35000
C         -0.79500        2.47000       21.36800
C         -0.42600        2.89600       19.98600
C         -0.41100        4.41400       20.00500
N          1.75300        4.04300       23.59600
C          3.06800        3.79300       24.19000
C          4.10200        3.48900       23.11100
O          4.71600        2.40900       23.11100
C          2.95500        2.64100       25.20300
C          4.09500        2.57200       26.17400
N          3.92300        2.22500       27.49600
C          5.41900        2.80200       26.01800
C          5.09400        2.24900       28.11100
N          6.01800        2.59500       27.23600
N          4.27100        4.43700       22.18900
C          5.18900        4.31600       21.04200
C          6.55600        4.93800       21.25900
O          7.33200        4.99600       20.32700
C          4.57500        4.93100       19.78600
C          3.23100        4.36800       19.36500
C          2.68800        5.20900       18.18900
C          3.40800        2.93500       19.00300
N          6.87300        5.33900       22.48900
C          8.14800        6.00200       22.77800
C          9.38800        5.25500       22.30100
O         10.35700        5.88300       21.85900
N          9.39100        3.93200       22.36500
C         10.56400        3.18700       21.90900
C         10.30300        2.44600       20.57800
O         11.10500        1.62200       20.14400
C         11.02800        2.22100       22.99200
N          9.17600        2.76800       19.94000
C          8.73200        2.11100       18.72800
C          9.35500        2.71600       17.47100
O          8.68500        3.36900       16.66400
C          7.20500        2.14500       18.64900
O          6.68200        1.21700       19.59800
N         10.66800        2.52000       17.35100
C         11.38500        2.82600       16.14000
C         12.26700        1.63100       15.85300
O         12.69600        0.90800       16.76700
C         12.28400        4.07700       16.25100
O         13.39500        3.81300       17.12200
C         11.50300        5.27100       16.74500
N         12.55600        1.42000       14.58000
C         13.40200        0.29800       14.19300
C         14.72000        0.36000       14.96100
O         15.22800       -0.63900       15.47500
C         13.64600        0.39000       12.67900
C         14.93400       -0.17800       12.18300
C         14.97000       -1.69100       12.31400
C         16.28900       -2.19500       11.85400
N         16.40000       -3.63900       12.16400
N         15.25700        1.57000       15.05800
C         16.56900        1.79500       15.63900
C         16.60500        1.50000       17.14800
O         17.46300        0.72300       17.60700
C         16.99800        3.24300       15.33100
C         17.24000        3.50900       13.84300
C         15.97500        3.83300       13.02800
O         14.87100        3.87400       13.61400
O         16.10200        4.00200       11.77400
N         15.67000        2.08400       17.89500
C         15.55700        1.82300       19.33700
C         15.36500        0.33300       19.58500
O         15.99500       -0.25000       20.48000
C         14.41400        2.59700       19.94100
N         14.52400       -0.30100       18.77000
C         14.26400       -1.71900       18.96200
C         15.51600       -2.56100       18.66500
O         15.77400       -3.56300       19.33800
C         13.04100       -2.19200       18.16200
C         11.70400       -1.74900       18.74300
C         11.57700       -2.03500       20.24700
O         11.43800       -3.18700       20.65900
N         11.66000       -0.98300       21.06700
N         16.32000       -2.12000       17.70500
C         17.56400       -2.83300       17.37700
C         18.50500       -2.67400       18.57100
O         19.09900       -3.62200       19.03900
C         18.19800       -2.24500       16.11400
O         19.38700       -2.94400       15.76700
N         18.59300       -1.45100       19.10200
C         19.51000       -1.20800       20.22500
C         19.10900       -1.96400       21.49900
O         19.96300       -2.54900       22.17300
C         19.66100        0.28300       20.48500
C         20.43200        0.97800       19.36400
C         20.93500        2.31300       19.80200
N         19.84800        3.12600       20.29200
C         19.19000        4.04600       19.58100
N         19.48300        4.27800       18.30900
N         18.20800        4.70400       20.15400
N         17.81700       -1.98200       21.82300
C         17.35400       -2.72600       23.01400
C         17.47700       -4.22200       22.86800
O         17.80300       -4.91400       23.84000
C         15.92500       -2.36500       23.37700
S         15.78400       -0.69300       23.90400
N         17.20700       -4.74500       21.67100
C         17.38400       -6.17900       21.42400
C         18.82400       -6.62300       21.61800
O         19.09300       -7.66600       22.21700
N         19.76100       -5.83600       21.10800
C         21.18900       -6.08700       21.35300
C         21.53400       -5.98900       22.85500
O         22.17100       -6.89400       23.40600
C         22.02500       -5.07500       20.56600
C         23.52300       -5.19400       20.78100
C         24.31200       -4.23600       19.90900
O         23.71500       -3.27300       19.38500
O         25.53000       -4.43700       19.76900
N         21.10700       -4.88500       23.49000
C         21.40900       -4.58900       24.90300
C         21.04300       -5.75600       25.81800
O         21.87100       -6.21200       26.61500
C         20.69300       -3.27800       25.32200
C         21.14600       -2.65900       26.66200
C         20.60300       -1.22800       26.89600
O         20.76900       -0.72400       28.02600
O         20.01100       -0.63500       25.97200
N         19.83600       -6.28700       25.66500
C         19.40100       -7.40800       26.48700
C         20.10800       -8.70800       26.10400
O         20.43500       -9.52100       26.99300
C         17.84900       -7.55400       26.47600
C         17.38100       -8.38700       27.68100
C         17.35300       -8.13100       25.15900
C         17.75700       -7.78500       29.04300
N         20.37600       -8.92200       24.80700
C         21.01300      -10.17900       24.36400
C         22.43300      -10.29700       24.89500
O         22.84100      -11.37700       25.35100
C         21.01800      -10.28800       22.82500
N         23.17300       -9.19200       24.82900
C         24.55800       -9.12500       25.29400
C         24.65000       -9.45100       26.78900
O         25.61400      -10.06100       27.24800
C         25.16300       -7.72300       25.03700
C         26.54300       -7.61000       25.66300
C         25.26100       -7.46200       23.56200
N         23.63700       -9.04100       27.54400
C         23.60300       -9.29800       28.97500
C         23.39100      -10.78000       29.25100
O         23.96800      -11.31100       30.18800
C         22.50600       -8.47500       29.65100
C         22.82800       -7.01600       29.76800
C         21.72400       -6.23900       30.47300
O         21.58400       -6.33000       31.69700
N         20.92300       -5.49600       29.70400
N         22.54800      -11.42200       28.44600
C         22.37600      -12.87400       28.50000
C         23.65400      -13.59800       28.09800
O         23.96700      -14.63800       28.67200
C         21.21900      -13.34800       27.61100
C         19.85600      -13.27100       28.27000
C         19.37800      -12.08300       28.78000
C         19.04500      -14.39600       28.35600
C         18.11300      -12.01100       29.37700
C         17.78500      -14.32400       28.95100
C         17.32500      -13.12900       29.46300
N         24.39600      -13.07800       27.11400
C         25.64300      -13.76300       26.70000
C         26.73100      -13.56500       27.75700
O         27.45300      -14.51400       28.08800
C         26.14700      -13.29500       25.30300
C         27.57300      -13.79700       25.03400
C         25.20900      -13.78700       24.21600
N         26.82400      -12.35100       28.30600
C         27.88300      -12.01000       29.26600
C         27.89400      -12.88700       30.52000
O         28.97700      -13.17500       31.05400
C         27.85100      -10.52000       29.63700
C         28.43400       -9.63200       28.54400
O         28.95200      -10.16800       27.54000
O         28.37400       -8.38900       28.67600
N         26.72700      -13.33000       30.99300
C         26.73600      -14.40000       31.98800
C         27.30500      -15.59500       31.24900
O         26.62400      -16.21500       30.43300
C         25.39100      -14.68400       32.67800
C         24.10200      -14.49700       31.90800
S         22.77100      -14.18500       33.10500
C         21.31400      -14.22200       32.05900
N         28.57800      -15.85900       31.55600
C         29.53700      -16.60400       30.71800
C         28.91400      -17.45900       29.62200
O         28.79800      -17.00000       28.48200
C         30.50100      -17.44800       31.59900
C         29.72500      -18.43700       32.46800
C         31.55400      -18.16900       30.74600
C          0.92500       32.20300        3.71000
O          0.92200       31.19000        2.96300
O          1.74100       33.12800        3.57600
C         -0.07400       32.33300        4.80600
O         -0.38400       31.06500        5.32000
C         -1.31000       32.99600        4.20800
C         -2.43000       32.97700        5.20800
O         -3.59300       32.70500        4.83400
O         -2.20700       33.26600        6.40100
P         12.14600       33.06600        0.46700
O         11.85300       33.98600       -0.67200
O         12.82000       33.63900        1.63300
O         12.99500       31.80900       -0.04800
C         12.60400       31.11600       -1.20500
C         13.82000       30.48000       -1.80300
O         13.37900       29.55700       -2.77100
C         14.76400       31.49800       -2.45200
O         16.01800       31.54700       -1.75100
C         14.85800       31.02200       -3.89100
O         16.13400       31.17400       -4.52100
C         14.43900       29.56700       -3.72000
N         14.14800       28.92800       -4.98400
C         13.55900       29.46100       -6.09100
N         13.52300       28.48900       -7.02100
C         14.09000       27.36700       -6.54200
C         14.32700       26.11000       -7.08200
N         13.96300       25.80800       -8.32600
N         14.91300       25.14700       -6.29800
C         15.31900       25.43700       -5.01700
N         15.08900       26.68100       -4.50500
C         14.47100       27.62900       -5.24800
O         10.70400       32.45600        0.83300
P         10.23100       31.88200        2.26700
O          9.74600       32.99400        3.09300
O         11.27700       30.96500        2.76600
O          8.94700       31.05600        1.78700
C          9.04400       29.73900        1.27800
C          7.69000       29.24700        0.76200
O          6.82000       29.01100        1.86700
C          6.93700       30.20900       -0.14000
O          6.23400       29.45700       -1.08800
C          5.95500       30.90800        0.79100
O          4.82600       31.44400        0.11600
C          5.58100       29.71800        1.66000
N          4.92300       30.01200        2.94600
C          3.92600       29.14600        3.30800
C          3.27200       29.30500        4.49900
C          2.16900       28.36500        4.86400
O          1.20100       28.91000        5.65600
N          2.12900       27.07000        4.54100
C          3.65300       30.35200        5.33800
C          4.71600       31.20100        4.98300
C          5.36000       31.00500        3.77500
C          9.71600        1.70700       27.59200
O         10.88100        1.67200       28.04500
O          8.81500        2.27700       28.22700
C          9.38800        1.07400       26.27500
O          8.44000        1.87200       25.58600
C          8.84700       -0.33100       26.54700
C          8.42300       -0.96300       25.24700
O          9.17000       -0.88500       24.25400
O          7.31400       -1.52000       25.16000
P         16.84900        8.32900       33.79800
O         16.95500        7.48500       34.99000
O         18.09000        8.55200       33.02200
O         16.44100        9.75400       34.34300
C         15.36100        9.90000       35.22500
C         15.63300       11.09800       36.10200
O         14.43900       11.34300       36.83700
C         16.77900       10.89500       37.12900
O         17.83100       11.84300       36.88300
C         16.05800       11.07000       38.47600
O         16.75700       11.80200       39.45000
C         14.84500       11.90300       38.04600
N         13.82800       12.03500       39.09000
C         13.45900       11.14500       40.05700
N         12.49800       11.72000       40.82600
C         12.27500       12.97900       40.38200
C         11.40100       13.98500       40.79000
N         10.59500       13.82300       41.84600
N         11.42000       15.19000       40.11600
C         12.24100       15.37200       39.02900
N         13.08200       14.35300       38.61500
C         13.10000       13.19300       39.28900
O         15.54800        7.87500       33.01500
P         15.28500        8.14500       31.46100
O         15.86900        7.01700       30.66900
O         15.55600        9.54000       31.10200
O         13.73400        7.72800       31.41800
C         12.79800        8.65500       31.91600
C         11.39300        8.04800       31.95400
O         10.94900        7.74100       30.64200
C         11.25700        6.73500       32.72400
O         10.01900        6.68900       33.40300
C         11.30500        5.68400       31.62300
O         10.76200        4.43500       31.97700
C         10.48600        6.41200       30.57300
N         10.62800        5.91000       29.19800
C          9.50400        5.87000       28.43200
C          9.55900        5.45700       27.12600
C          8.27900        5.40300       26.35800
O          8.14600        4.46100       25.39000
N          7.29300        6.26900       26.56200
C         10.77400        5.05200       26.56900
C         11.92700        5.13800       27.34100
C         11.84400        5.58600       28.65900
O         14.96600        9.84100       -1.24600
O          4.35900       26.16300       16.29000
O         17.75700       26.85800       15.42200
O         20.85200       23.51400       15.66500
O         -5.17200        5.22900       12.42200
O          1.90400       19.95600       -3.79200
O         20.36900       18.69400       20.31500
O         -1.85500       29.92800        7.62600
O         18.89100        6.69400       14.24200
O         20.96300        7.11400       17.38500
O          5.28900        8.97500       -8.73700
O         24.31400       18.09200        7.92800
O         13.00500       29.10900        2.03400
O         -0.28000       19.53100       -2.38000
O         -3.62000        2.44300       18.86600
O          1.98900       20.51200       -9.86100
O          7.68200       22.03800        3.11200
O          2.84800        4.78100        1.07700
O         27.28200       23.93200        0.84700
O         -6.36200       15.37800       -1.65500
O         -0.12700       19.06400       -8.50100
O        -13.20000       19.90000       -0.22700
O         23.94300       25.35000       11.41200
O          6.34900        5.71800       16.32300
O         -5.57100       13.99000       -4.49100
O         -8.21300       34.52100        5.25200
O         13.23100       18.30400      -10.59300
O         28.44800       26.29300        9.80200
O        -11.80200       13.62800        2.74900
O         11.21100       28.09700       16.64600
O         -0.29800       35.31000        7.12600
O          7.38000       27.00700        3.65300
O         30.77200       29.08600        4.82800
O         22.91600       27.32400       -4.69500
O         21.47800        8.70200        2.71600
O         -6.02900       29.84600       10.20100
O        -10.51100        8.26600       15.21300
O         15.35700       32.99200        8.36700
O          6.06600       36.94300        0.06100
O         11.98300        8.00800        5.41100
O          6.24300       35.95300        6.05100
O        -12.09000       12.92500       -4.52300
O         28.50600       22.66900        3.02700
O         -4.61400       13.56900        5.50900
O         -1.96900       35.86400       -7.91200
O         28.40600       22.00900       -1.19400
O          8.23100       33.62700        5.23800
O         -4.91600        4.42200        2.30200
O          8.05600       40.93400       10.49600
O         -7.21700       36.76300       -7.52100
O         10.20100       36.47900       -0.03500
O         15.27100       34.83400        1.51900
O        -12.00500       14.30600       20.13600
O          5.15500       -0.26600       18.05300
O          1.42000       46.23400       -9.09400
O         -5.10100        6.23900       -2.74000
O         20.17900        7.57000        5.96500
O         25.58400       19.80300        6.09300
O        -14.02100       38.75400       -5.18000
O          5.87800       33.43600       -6.64600
O         -6.51300        2.22800       23.24700
O        -11.89100        1.39300       12.48300
O         -6.60500        7.57400       -1.34400
O          4.61800       31.48500       -4.62100
O         -8.13200        4.53200       13.09600
O          5.07900       13.48700      -12.95400
O          3.28700       46.16700       -7.27300
O          6.57000       42.37700       12.23200
O         -6.18600       45.78100      -14.97500
O         -2.07900       56.56100       -4.03200
O          5.22300       17.61600      -12.76000
O         -5.06200       16.69000       -3.64200
O          8.82000       35.30400        2.21700
O         16.13300       28.41100      -11.35400
O         -5.53700       39.09200      -15.22000
O         21.90000        9.55200        6.55900
O          3.10700        7.13500      -14.54700
O          7.49000       33.98600       -1.57300
O        -14.38200       38.95100       -9.16400
O          5.77400       44.36900        0.14000
O        -14.37400       14.84000       -4.09100
O          7.69400        7.32900      -10.10300
O         -5.63800       19.85800       -4.85100
O         -9.79800       10.75100       14.56500
O         -8.19900       19.40600       -5.63700
O         -3.05100        9.78800        7.99800
O          5.00300       32.58400       -2.34700
O         13.67400        7.59200        7.45200
O          2.58800        9.00400        7.32500
O         -2.62800       38.23300        8.56100
O        -11.78600       12.53500       15.13300
O          5.19700        8.28200        7.41700
O         -2.86900       39.86000       10.89500
O          8.88800       35.05200       11.46600
O         28.27000       23.18300        7.38200
O         27.23900       22.39400        9.75300
O         -7.73600       52.59400       -9.17900
O         -0.62200       26.90700       -5.23400
O         -1.00500       26.57600       -2.04800
O          1.42200       -3.02300       25.13200
O          0.94500       -4.56800       22.90000
O          1.87900       34.15300       -5.26100
O          1.88300       31.51100       -5.02800
O        -13.91900       37.83400       -2.23400
O         -2.66500       31.77500        0.49200
O          0.79000        3.68100        9.84000
O         -7.79300       -0.07200       23.18100
O         -0.59000       -3.70300       20.43700
O         24.51900        9.39300        5.96200
O         18.31800       29.36400       12.25000
O         19.57700       30.25900       10.14200
O         25.78000       16.26200        4.50800
O         24.89200       20.68000        9.52500
O         21.00600       21.07700       -9.76300
O         14.06800        5.25000        3.71200
O         -3.37300        6.64000       -8.64800
O          5.89000        4.35200       -7.81800
O          7.05100        2.42000        1.69300
O          4.32200        2.39200        1.84100
O         12.69400       32.82500       -6.34100
O        -14.31600       37.49200        9.47900
O         -7.00800       32.48500       -4.04600
O         -8.64000       37.93300      -11.91900
O         -6.96700       43.42200      -16.06100
O          0.80600       -0.62500        7.89900
O         20.17000        6.54800       10.99500
O         16.62200       34.83400        6.38400
O         25.13200       21.46500       12.62300
O         22.23500       15.83600       18.25900
O         25.56100       12.73700        2.62400
O         14.11500       23.34100      -10.61700
O         25.39700       31.73000       -5.70000
O          0.25800       13.95700      -12.36800
O         -0.35000        7.89600      -15.03600
O          7.00100       13.52300       28.81200
O        -10.26800       19.86900        3.29600
O         -8.25900        8.04800       28.76800
O         11.49200        9.84600       15.83100
O         -0.24000       10.03200       33.45800
O         -8.65100       22.34800       27.52400
O        -12.37900       27.77300        7.27200
O         -9.60000       21.02200        8.36800
O        -11.32600       11.90000       10.54800
O         -8.38200       28.88100        3.06800
O         -5.65400       12.28200       13.90200
O        -12.72100       21.49300       35.79400
O        -11.70100        5.91100       22.94000
O        -13.24400       16.13100       12.56300
O          7.47300        1.80000       22.95400
O        -16.40900       24.65300       11.13100
O         14.14300       -5.44900       20.18900
O         17.41900       13.18600       17.71000
O         -1.77000        9.20600       31.42200
O         24.93000       15.71100       39.15700
O         -4.25800       19.84300       21.87300
O         15.19600       11.97300       32.09500
O          2.29400        8.61100       45.47700
O         16.33300        2.87700       27.07800
O        -14.03800       19.39100       36.12300
O        -16.19900       22.22400        5.24600
O         -1.67000       26.20400       13.66500
O         -6.37900       11.24600       22.09400
O         -7.18600        7.74700       31.18800
O        -13.81000       20.07500       28.12100
O         19.06900       19.08500       41.14700
O         28.42000       18.78100       38.93800
O        -10.52500       17.51000       14.69000
O         28.69100       23.14500       34.45200
O        -12.73600       26.64700       11.82700
O          2.39200       26.56000       33.77200
O        -13.62900       15.37600       35.63300
O         -7.64700       11.95800       40.44000
O          2.29700       28.53900       24.48800
O         -6.66200       11.36300       11.31500
O          8.52900       31.30100       39.53200
O         21.05900       11.28400       27.02700
O         -3.74900       17.57000       44.50900
O         20.27200       23.03300       20.42700
O          9.45500        3.57700       36.36700
O         19.88300       -5.14600       33.35500
O         21.64700       13.31500       20.88800
O         -7.67900       11.95400       15.79400
O          3.02300        3.47400       31.61500
O          5.34200       23.37600       16.70300
O         -1.47200        9.50400       39.34900
O         10.30000       -4.99600       18.95100
O         10.24500        9.77600       28.90300
O         21.34000        6.45200       22.04900
O         -7.60500       15.30600       20.01400
O         -9.22000       10.50700       11.76700
O         20.47900        9.44900       33.87200
O        -12.42000       29.00500        9.53200
O          6.79500       33.65600       38.29900
O        -14.74600        5.60100       29.40800
O         -0.17200       -3.69200       27.98400
O         -3.49700        8.71500       37.21600
O        -13.29600        1.09700       27.97200
O         -4.77100        9.62000       10.29500
O         -9.45600        9.36200       31.56200
O         11.42800       11.54100       43.46600
O         29.59100       20.49200       40.77700
O         -8.55300        4.44400       34.88400
O        -13.67500       15.81300       38.37500
O          9.37500        7.62400       46.12400
O        -11.44000       14.02900       36.24900
O         11.80400       -0.99900       24.14700
O         -2.95100       21.89800       22.47300
O        -15.09200       25.11700       31.45800
O          5.86200       32.77900       27.85400
O         16.86500        4.65300       31.37800
O         21.34000       24.87400       36.12800
O         20.15700       10.54000       36.37000
O         -6.64700       19.64000       38.00400
O         19.59700       21.49500       41.74600
O        -12.75700       20.73200        2.55700
O         -9.34700       10.66900       33.87100
O          3.59500       13.67200       44.21700
O         -5.62300        7.14900       37.68400
O         -6.45400       22.32500       39.95900
O         16.18500       23.34700       44.04800
O         13.83000       10.73000       44.10200
O          9.29500       15.79300       43.75500
O         -6.68800       22.69500       37.47300
O         -8.91500        8.02200       10.62300
O         -2.84400       28.24000       25.98800
O        -11.84500       31.55200        8.57500
O          6.73800       33.36400       19.47000
O         31.55900       22.96500       37.92400
O         11.52800       10.59700       47.95700
O         25.19500       20.03800       25.81900
O         18.97300        5.84300       22.86400
O         15.82800        5.66300       28.25400
O         -7.97500       14.38500       17.16600
O         22.75700      -23.59500       25.25400
O          8.72200       32.36100       28.00200
O          1.05200       29.52400       27.94800
O         17.44800       28.25900       31.02700
O         16.87100       28.17100       28.26700
O         22.47000       23.29000       25.66100
O         21.57200       16.71000       23.88100
O         -5.44600        4.65900       32.57200
O         -6.74300        9.97100       38.70300
O        -10.36800       15.08000       16.53300
O          0.89500       26.66400       26.32700
O          5.39200       -5.92700       23.30100
O          6.07700       -0.81500       29.43700
O          7.43200        1.85000       36.27400
O         10.75600        3.28000       34.54400
O        -12.09400       10.19400        8.70900
O          6.63900       -4.59500       38.19800
O          9.45000       -0.36800       36.71200
O        -14.72300       24.86500       13.08000
O          6.64400       33.82100       22.94100
O          6.43800       32.21500       31.17800
O         22.99100       11.03200       29.09900
O         21.00600        6.53000       26.73000
O         22.55500       16.76400       26.42700
O         11.20900       21.75500       44.78700
O          5.47900       22.25500       44.16400
O          3.76200       27.87900       42.73700
O          1.93100       29.53300       41.03500
O          4.50900       17.92800       42.76700
O         -4.97100       15.70000       42.61000
O         -6.96700       27.30500       28.02200
O         -8.94500       23.78200       36.83900
O         -7.99800        3.30400       32.44900
O        -13.79200        5.12300       22.48700
O         20.97900        2.83600       16.17600
O          3.20300       -7.97700       35.74600
O         15.25700        1.01700       33.38300
O         22.17800        0.37900       24.11200
O         22.15400        3.12100       23.13100
O         -2.72300       25.03900       19.78500
O         28.42900       25.46800       35.64000
O         13.43200        3.99500       39.88100
O         -1.60900        6.15200       39.65600
O        -13.81800       13.43400       27.23100
O         -8.83000       28.35500       34.86100
