1117
Plastocyanin
N         30.96500       -3.62200        1.79900
C         30.63400       -2.36700        1.08700
C         30.67900       -1.28000        2.11800
O         30.06700       -1.45200        3.21000
C         29.28700       -2.43800        0.31400
C         29.09100       -1.19300       -0.52300
C         28.05100       -2.70900        1.22400
C         27.87600       -1.19900       -1.42800
N         31.37500       -0.18200        1.80500
C         31.45600        0.95000        2.68100
C         30.37900        1.96500        2.31400
O         30.17000        2.25500        1.12400
C         32.78900        1.60900        2.52800
C         33.93100        0.79500        3.09400
O         33.71600       -0.11500        3.87400
O         35.06800        1.10600        2.71500
N         29.73200        2.49200        3.34400
C         28.67700        3.50200        3.16500
C         29.03500        4.69800        4.01700
O         29.18600        4.56200        5.23700
C         27.30100        2.93100        3.54200
C         26.22700        4.02800        3.40300
C         26.93900        1.70300        2.72900
N         29.19600        5.87000        3.39400
C         29.50500        7.08100        4.15800
C         28.24200        7.62400        4.81500
O         27.17700        7.67900        4.18500
C         30.05700        8.15900        3.22200
C         31.29200        7.75900        2.40100
C         31.62700        8.87500        1.42100
C         32.43600        7.52100        3.32000
N         28.39700        8.06100        6.07200
C         27.35500        8.73700        6.80800
C         27.71000       10.23400        6.71700
O         28.59000       10.73800        7.41700
C         27.29500        8.26600        8.25500
C         27.10800        6.76300        8.45800
C         27.30400        6.40200        9.89900
C         25.78600        6.35500        7.93600
N         26.95500       10.90800        5.85400
C         27.24300       12.27500        5.45700
C         28.15900       12.24900        4.23400
O         29.11200       11.45700        4.14900
N         27.81500       13.07600        3.23600
C         28.61400       13.13900        2.01900
C         29.81600       14.03200        2.19900
O         29.90100       14.83300        3.14300
C         27.75700       13.65800        0.87400
N         30.75800       13.93200        1.25300
C         31.97300       14.71900        1.29100
C         31.76100       16.22400        1.08000
O         32.66900       17.01000        1.24600
C         32.98900       14.18000        0.28600
C         33.83600       13.03700        0.81100
O         33.73900       12.64700        1.98000
O         34.68100       12.54900       -0.03400
N         30.55200       16.62700        0.71200
C         30.17200       18.04900        0.64100
C         29.31900       18.48600        1.83600
O         28.79200       19.60300        1.83200
C         29.46100       18.35600       -0.68000
C         28.16300       17.64100       -0.83100
O         27.71100       16.95600        0.10400
O         27.59600       17.72700       -1.96500
N         29.23600       17.62700        2.86500
C         28.49500       17.94000        4.07500
C         27.01800       17.55500        4.01400
O         26.34600       17.69800        5.03200
N         26.38700       17.09600        2.90000
C         25.04200       16.73600        2.72700
C         25.05100       16.71200        2.73700
C         25.03200       16.72400        2.78000
C         24.76000       15.55700        3.65300
O         25.46600       14.60400        3.89500
C         24.89400       16.15700        1.27100
C         24.92200       16.17100        1.26400
C         24.46600       16.52000        1.40700
O         24.95500       17.16600        0.29500
O         23.70400       15.54500        1.08000
O         25.35700       15.71300        0.67200
N         23.54300       15.65100        4.27400
C         23.08700       14.60100        5.20500
C         22.46100       13.46800        4.39500
O         21.27300       13.37200        4.17100
C         22.07700       15.21600        6.19500
C         22.65600       16.37200        7.03800
C         21.55900       16.94600        7.95900
C         23.91100       15.94100        7.82700
N         23.34800       12.54500        3.98700
C         23.00700       11.47200        3.07300
C         23.88300       10.27400        3.39000
O         25.03000       10.42300        3.81200
C         23.23600       11.86100        1.63000
N         23.32000        9.09000        3.13600
C         24.12400        7.86300        3.03700
C         24.70600        7.79600        1.60000
O         23.97100        8.03900        0.64200
C         23.19900        6.64000        3.19500
C         22.65800        6.45600        4.58200
C         23.36100        5.72200        5.54100
C         21.41300        6.96400        4.94600
C         22.84800        5.50000        6.81000
C         20.90900        6.73400        6.22700
C         21.59200        6.03400        7.15200
N         25.99100        7.45700        1.50100
C         26.62800        7.38600        0.17100
C         27.31200        6.03300        0.02600
O         28.35700        5.83000        0.66000
C         27.64100        8.53500       -0.03600
C         28.19900        8.46000       -1.48200
C         26.99700        9.87000        0.23600
N         26.81900        5.09300       -0.78800
C         25.54700        5.16400       -1.55000
C         24.34000        4.95300       -0.61900
O         24.46800        4.39200        0.46900
C         25.69500        3.96200       -2.49900
C         26.47600        2.94300       -1.72500
C         27.49200        3.78900       -0.96800
N         23.18300        5.35400       -1.10800
C         21.96300        5.20400       -0.33800
C         21.10400        4.01200       -0.78600
O         20.36800        3.46300        0.03500
C         21.12300        6.46500       -0.32800
O         20.73300        6.82300       -1.64400
N         21.20100        3.60800       -2.06000
C         20.54800        2.41400       -2.58100
C         21.63000        1.50300       -3.12900
O         22.48000        1.92900       -3.91700
C         19.53800        2.74000       -3.70200
C         18.33200        3.47700       -3.18900
C         18.16600        2.05200       -3.83700
C         17.32600        3.67200       -4.32800
C         17.23800        2.60300       -4.96100
O         16.55000        2.78600       -4.66000
O         17.24800        3.82900       -5.21200
O         17.38200        4.72200       -4.97000
O         16.47500        1.83500       -5.59000
N         21.60900        0.25700       -2.68900
C         22.60200       -0.69900       -3.13900
C         22.08500       -2.12100       -2.87600
O         21.12500       -2.30800       -2.11700
C         23.98800       -0.47900       -2.47000
C         23.93800       -0.39800       -0.95900
C         23.61600        0.81000       -0.32300
C         24.20500       -1.50100       -0.17400
C         23.59700        0.91200        1.05900
C         24.19100       -1.38900        1.21100
C         23.87500       -0.21500        1.83800
N         22.72300       -3.07600       -3.55100
C         22.40400       -4.48600       -3.37900
C         23.66500       -5.25200       -2.92000
C         23.69900       -5.18300       -2.82000
O         24.79500       -4.92100       -3.31200
O         24.84800       -4.76900       -3.05900
C         21.94200       -5.12300       -4.69100
O         20.77400       -4.49900       -5.18100
N         23.32500       -6.24300       -2.07800
N         23.45500       -6.29300       -2.09600
C         24.36900       -7.12100       -1.54500
C         24.47900       -6.99500       -1.41000
C         23.89900       -8.59800       -1.57900
C         24.07600       -8.42700       -1.26000
O         22.73700       -8.86700       -1.90300
O         22.90500       -8.78000       -1.52800
C         24.76700       -6.73200       -0.13800
C         24.72200       -6.50000        0.03800
C         23.58800       -6.94100        0.90700
C         23.44800       -6.50100        0.91300
C         25.21800       -5.27700       -0.04500
C         25.59100       -5.34300        0.02700
C         24.03000       -6.73000        2.27900
C         23.75500       -6.43000        2.44300
N         24.87400       -9.50200       -1.28600
N         25.07000       -9.22800       -0.79200
C         24.56600      -10.92200       -1.08900
C         24.74600      -10.64200       -0.61800
C         24.53200      -11.24300        0.39500
C         24.58600      -11.03700        0.81600
O         25.07600      -10.55700        1.22600
O         25.13000      -10.39600        1.70200
C         25.63600      -11.74300       -1.80400
C         25.82400      -11.50000       -1.26600
O         25.67300      -11.43500       -3.13500
O         26.14100      -10.88500       -2.45100
N         23.93800      -12.41700        0.69300
N         23.85900      -12.18000        1.05100
C         23.96600      -12.79500        2.14100
C         23.80700      -12.70100        2.40300
C         25.32400      -12.85800        2.76400
C         25.20800      -12.94100        2.87300
O         26.25000      -13.38300        2.15100
O         26.06400      -13.61200        2.26800
C         23.29600      -14.18200        2.16200
C         23.05300      -14.03900        2.26400
C         22.33700      -14.08400        0.94500
C         22.16400      -13.80600        1.00800
C         23.15600      -13.36800       -0.10700
C         23.06500      -12.97900        0.08600
N         25.42700      -12.32100        4.01200
C         26.64300      -12.33800        4.78600
C         27.64300      -11.28900        4.40500
O         28.71500      -11.18400        5.04600
N         27.46900      -10.51600        3.29600
N         27.22500      -10.51200        3.40300
C         28.39600       -9.43000        2.86300
C         28.06800       -9.43100        2.94400
C         28.36900       -8.26900        3.86900
C         28.06200       -8.33100        4.00500
O         27.32500       -7.69300        4.16500
O         27.01900       -7.82000        4.36800
C         27.94000       -8.97500        1.50000
C         27.61400       -8.86700        1.61300
C         28.64600       -7.75600        0.94700
C         28.43500       -7.62800        1.21500
C         28.50400       -7.51800       -0.52300
C         28.32500       -7.34500       -0.25600
O         27.62200       -8.09500       -1.16400
O         27.67400       -8.15000       -0.94600
O         29.30000       -6.74800       -1.03700
O         28.86400       -6.29900       -0.69600
N         29.55400       -7.87200        4.34900
N         29.22300       -7.95900        4.50700
C         29.70100       -6.83200        5.30700
C         29.25300       -6.87000        5.47500
C         29.15000       -5.49400        4.69100
C         29.05100       -5.52000        4.79400
O         29.44600       -5.16600        3.51800
O         29.53900       -5.15600        3.77100
C         31.13700       -6.68000        5.73900
C         30.56100       -6.79700        6.20000
C         32.12700       -6.23200        4.79000
C         31.70300       -6.03900        5.61200
C         33.60300       -6.38900        5.36000
C         32.94100       -5.94400        6.46500
C         33.95300       -5.53500        6.55200
C         34.03100       -5.22000        5.70000
N         35.46700       -5.47200        6.71400
N         35.51400       -5.28700        6.14200
N         28.40800       -4.68900        5.56500
C         28.16300       -3.28500        5.30800
C         28.85100       -2.53600        6.44300
O         28.59100       -2.80900        7.61200
C         26.69700       -2.89700        5.28700
C         25.86700       -3.86100        4.38200
C         26.55200       -1.45800        4.87500
C         24.33400       -3.62500        4.60900
N         29.73200       -1.58900        6.07800
C         30.38600       -0.75900        7.08300
C         29.87700        0.68100        6.88400
O         30.25200        1.32700        5.88400
C         31.91800       -0.79400        6.95700
C         32.55000        0.04900        8.06500
C         32.39900       -2.27500        7.12900
N         29.03200        1.13400        7.81200
C         28.54400        2.49000        7.78100
C         29.52700        3.36400        8.57000
O         29.81000        3.07200        9.75000
C         27.16500        2.55700        8.45300
C         26.08400        1.82700        7.70800
C         25.39100        2.48600        6.69200
C         25.70200        0.55500        8.04600
C         24.31300        1.86000        6.02400
C         24.64800       -0.09100        7.39300
C         23.93500        0.59800        6.41300
N         30.10000        4.38100        7.90400
C         31.23700        5.11300        8.47200
C         30.92000        6.57900        8.60300
O         30.60900        7.28000        7.63000
C         32.45200        4.88000        7.65700
C         32.44200        5.03900        7.54200
C         33.66900        5.63300        8.22000
C         32.88000        3.67500        7.14600
C         34.92200        5.29000        7.45300
C         34.26000        3.58600        6.46300
C         34.89900        5.27200        5.94300
C         35.31100        2.95600        7.42700
N         36.12100        4.57400        5.32700
N         36.37800        1.97600        6.92400
N         31.03100        7.12400        9.84500
C         30.82100        8.55500       10.05100
C         31.77700        9.37100        9.22400
O         33.00900        9.21300        9.34500
C         31.02700        8.94800       11.50100
C         29.79500        9.16600       12.27100
O         28.69000        9.17400       11.75600
N         30.03300        9.41200       13.58300
N         31.24200       10.27300        8.43200
C         32.00700       11.08900        7.51300
C         31.85400       12.56300        7.77500
O         32.84800       13.27300        7.97700
C         31.67400       10.68800        6.07900
C         32.52800       11.42000        5.07800
O         33.74800       11.60600        5.29700
N         31.94100       11.82700        3.99800
N         30.61400       13.06600        7.75100
C         30.39700       14.52700        7.90800
C         29.02800       14.74200        8.50700
O         28.08200       13.96900        8.15700
C         30.48700       15.19400        6.54400
N         28.87300       15.75100        9.37300
C         27.54200       16.06600        9.85300
C         27.05400       15.14800       10.98900
O         25.87200       15.17300       11.32500
N         27.96600       14.34900       11.56600
C         27.66900       13.48000       12.68000
C         27.38600       14.30500       13.91200
O         27.75400       15.46100       13.94000
C         28.85400       12.52400       12.90900
C         30.18700       13.18400       12.82900
C         30.71200       13.84700       13.93500
C         30.91900       13.19600       11.63800
C         31.92700       14.49700       13.87500
C         32.13100       13.87400       11.55200
C         32.59900       14.56600       12.67300
N         26.71400       13.78400       14.93100
C         26.34400       12.36300       15.08400
C         25.31200       11.89600       14.05400
O         24.46500       12.61000       13.56200
C         25.71500       12.30800       16.47800
C         26.36100       13.46800       17.25100
C         26.51000       14.53200       16.20000
N         25.43300       10.60600       13.74500
C         24.47800        9.87300       12.89100
C         24.18800        8.53000       13.55800
O         24.92100        8.04600       14.39700
C         25.08000        9.56100       11.50900
C         25.38900       10.74900       10.67700
N         24.39800       11.60800       10.17700
C         26.59500       11.19600       10.21300
C         25.03500       12.52100        9.44800
N         26.36300       12.27800        9.44800
N         23.10800        7.88500       13.05300
C         22.95000        6.46400       13.32400
C         22.37700        5.80900       12.06000
O         22.15700        6.44800       11.03300
C         22.13400        6.20800       14.60100
C         20.74400        6.75700       14.54800
O         20.16800        6.94300       13.46600
N         20.17000        7.01100       15.72300
N         22.18400        4.48500       12.19000
C         21.58800        3.70200       11.10500
C         20.59600        2.76100       11.74700
O         20.93900        1.89900       12.58100
C         22.58100        2.71300       10.48500
C         22.62900        3.11300       10.09900
C         23.78400        3.46400        9.98200
C         21.97000        2.46300        8.89600
C         21.89300        1.87400        9.39000
C         23.65600        2.26100       10.83900
C         24.90500        3.70600       11.04100
C         21.44600        1.01100        9.10900
N         19.32100        2.98500       11.38300
C         18.17300        2.28400       11.96300
C         17.42200        1.61900       10.80700
O         17.01200        2.28900        9.85800
C         17.27000        3.25400       12.69400
C         16.09100        2.55100       13.29200
C         18.01500        4.05100       13.77900
N         17.21800        0.30600       10.90300
C         16.36700       -0.37800        9.95800
C         14.94100       -0.21400       10.37400
O         14.58400       -0.41900       11.53900
C         16.72200       -1.84300        9.82700
C         18.00600       -2.05000        9.04700
C         19.26100       -2.13900        9.67500
C         17.94900       -2.11700        7.64800
C         20.40600       -2.30000        8.91000
C         19.11500       -2.26900        6.90800
C         20.36300       -2.35600        7.55200
N         14.04400        0.11400        9.43300
C         12.64300        0.30300        9.72400
C         11.99100       -1.08000        9.90700
O         11.93900       -1.91100        8.99200
C         12.02100        1.02500        8.53300
C         10.51300        1.24100        8.65100
O          9.85800        0.64800        9.48000
O          9.99900        1.95300        7.76900
N         11.52000       -1.32300       11.12600
C         10.97800       -2.62300       11.50800
C          9.84400       -3.08200       10.59900
O          9.60700       -4.28100       10.45000
C         10.50300       -2.59500       12.96300
C          9.29900       -1.69900       13.20600
C          8.86600       -1.68600       14.65800
O          9.47700       -2.41400       15.46900
O          7.91500       -0.94800       14.99000
N          9.13700       -2.12600       10.00500
C          7.99400       -2.43700        9.15200
C          8.36100       -2.39900        7.67200
O          7.57500       -2.80500        6.81700
C          6.84000       -1.47200        9.43100
C          6.47300       -1.41300       10.90100
O          6.44000       -2.47900       11.55000
O          6.21600       -0.30000       11.40700
N          9.65000       -2.48000        7.39600
N          9.64500       -2.39900        7.29600
C         10.05800       -2.45400        6.01200
C         10.11200       -2.43500        5.90900
C         11.32200       -3.29400        5.75400
C         11.41900       -3.23800        5.84500
O         12.16900       -2.92400        4.93800
O         12.39500       -2.79200        5.22000
C         10.24200       -1.01200        5.55000
C         10.32600       -1.03600        5.35700
O         10.14100       -1.00600        4.13300
O          9.15500       -0.30900        5.46900
N         11.42700       -4.42100        6.46600
C         12.49400       -5.39300        6.32300
C         11.82000       -6.74600        6.10100
O         10.61100       -6.90000        6.31700
C         13.43200       -5.40800        7.57000
C         12.69500       -5.72200        8.83600
C         14.20500       -4.05600        7.64200
C         13.57300       -5.74400       10.08400
N         12.62800       -7.74500        5.67000
N         12.56000       -7.71000        5.63100
C         12.09500       -9.05800        5.28000
C         11.85600       -8.95100        5.43400
C         11.41900       -9.89300        6.38900
C         11.19300       -9.38100        6.73500
O         11.65400       -9.66400        7.59800
O         11.63800       -9.15000        7.85300
C         13.30300       -9.78900        4.60400
C         13.00800       -9.92000        5.06100
C         14.21800       -8.69400        4.17500
C         13.90700       -8.97100        4.21000
C         14.07000       -7.65200        5.33800
C         13.93700       -7.74000        5.10500
N         10.55700      -10.76700        5.96000
N         10.17100      -10.14800        6.43900
C          9.70200      -11.56000        6.81500
C          9.42000      -10.84200        7.42300
C         10.48300      -12.21000        7.91300
C         10.28600      -11.72100        8.23900
O         11.40600      -12.93800        7.71600
O         11.08700      -12.53300        7.74600
C          9.05400      -12.68900        5.95600
C          8.28700      -11.65100        6.79100
O          8.09200      -13.31500        6.67700
O          7.31400      -10.66800        6.52300
N         10.10500      -11.93400        9.15900
N          9.98700      -11.56500        9.56700
C         10.66300      -12.54200       10.30300
C         10.58700      -12.44700       10.50200
C         11.96700      -12.01800       10.83400
C         11.94000      -11.92100       10.94000
O         12.45700      -12.49200       11.85800
O         12.41400      -12.34700       12.01200
N         12.58100      -11.01300       10.15100
C         13.85700      -10.49000       10.57000
C         13.69800       -9.64800       11.84100
O         12.78400       -8.84000       11.95300
C         14.51400       -9.68500        9.46300
C         15.74800       -8.93300        9.92300
C         14.86000      -10.60000        8.27000
N         14.63200       -9.85500       12.79300
C         14.69400       -9.08100       14.00400
C         15.51800       -7.81300       13.74700
O         16.73600       -7.85500       13.58800
C         15.37500       -9.92200       15.07700
C         15.46700       -9.31500       16.41600
O         15.12500       -8.09600       16.59100
O         15.88500      -10.04500       17.37800
N         14.81900       -6.66200       13.69100
C         15.53400       -5.41600       13.45200
C         16.65800       -5.19500       14.45600
O         17.66900       -4.56400       14.12800
C         14.57100       -4.24900       13.50800
N         16.51100       -5.67800       15.69900
C         17.54900       -5.43000       16.72500
C         18.83200       -6.18000       16.43500
O         19.89600       -5.80500       16.99700
C         17.01500       -5.79100       18.11500
O         16.97500       -7.17300       18.33300
N         18.80700       -7.21800       15.61400
C         20.05000       -7.94200       15.28700
C         20.90100       -7.12700       14.33000
O         22.10000       -7.43900       14.18200
C         19.72100       -9.29500       14.66600
C         19.18900      -10.31000       15.69100
C         18.99300      -11.70100       15.09100
C         18.67800      -12.81200       16.17100
N         19.30100      -13.99300       15.48000
N         17.12200      -12.62800       16.54900
N         20.29200       -6.16000       13.60100
C         20.92800       -5.54900       12.45500
C         20.99800       -4.01400       12.54000
O         21.57200       -3.38900       11.65900
C         20.25800       -5.98700       11.14000
C         18.77400       -5.61800       11.10800
C         20.49600       -7.49500       10.90200
C         18.12500       -5.74800        9.73000
N         20.43000       -3.42900       13.60700
C         20.18100       -1.99600       13.65500
C         20.81600       -1.37600       14.84800
O         20.85500       -1.99600       15.95200
C         18.72100       -1.61100       13.90100
C         18.65300       -1.82800       13.61000
O         17.99800       -1.93600       12.75000
O         18.30500       -0.51500       13.43900
N         21.13000       -0.07800       14.76600
C         21.25400        0.74100       15.95000
C         19.86100        1.07200       16.46500
O         18.88500        1.05200       15.70600
C         22.03500        2.04200       15.61300
C         23.42300        1.73300       15.10800
S         24.38600        3.19800       14.64000
C         24.53800        4.03300       16.25400
N         19.75200        1.37500       17.73700
N         19.79200        1.40000       17.74900
C         18.48300        1.95500       18.18800
C         18.58300        2.02600       18.29500
C         18.44400        3.40300       17.71500
C         18.50700        3.49700       17.91000
O         19.46700        4.00400       17.39400
O         19.56200        4.17000       17.74800
C         18.31400        1.92000       19.68400
C         18.57600        1.90600       19.78600
O         19.26800        2.82800       20.29000
O         18.37000        0.58400       20.10300
N         17.26600        4.02400       17.78100
C         17.15900        5.43400       17.42400
C         17.93000        6.32500       18.42400
O         18.36200        7.42900       18.03500
C         15.73100        5.93300       17.33700
C         14.94600        5.33300       16.19500
C         13.58300        5.92400       16.03000
O         13.03700        6.55400       16.99200
O         12.97900        5.72700       14.94700
N         18.10300        5.85500       19.65500
C         18.80800        6.62000       20.67700
C         20.32400        6.51100       20.53000
O         21.05600        7.43400       20.88700
C         18.38300        6.16400       22.07400
C         16.94200        6.49900       22.42500
C         15.94400        5.75700       21.55900
O         16.08900        4.52600       21.40300
O         15.01400        6.40500       21.03300
N         20.79100        5.38100       20.00700
C         22.25100        5.15100       19.84000
C         22.79700        6.14100       18.81600
O         22.10400        6.46200       17.80400
C         22.48300        3.76200       19.28700
C         22.22700        2.54800       20.17000
O         22.27300        2.65600       21.42000
O         22.05500        1.43900       19.57400
N         24.02100        6.58000       18.99400
C         24.67300        7.47000       18.03000
C         26.10500        7.05700       17.79900
O         26.79300        6.60300       18.73100
C         24.65800        8.91400       18.52600
C         23.25000        9.58400       18.58800
C         23.43700       10.87900       19.38100
C         22.66100        9.80100       17.16800
N         26.56600        7.30400       16.57000
C         28.00000        7.31500       16.25000
C         28.43000        8.75200       16.37800
O         27.87800        9.63900       15.67100
C         28.27800        6.82100       14.84300
C         27.70800        5.40000       14.55000
C         28.15800        5.02400       13.15300
C         28.16900        4.34200       15.55700
N         29.38300        9.04500       17.28800
N         29.37900        9.05000       17.29200
C         29.71400       10.41800       17.65300
C         29.69100       10.44900       17.59900
C         31.00900       10.96100       17.03900
C         31.00800       10.96400       17.03200
O         31.28100       12.18000       17.14900
O         31.28300       12.18000       17.14900
C         29.82900       10.51600       19.20500
C         29.70400       10.71900       19.07900
C         28.49000       10.29300       19.89200
C         30.39900        9.75700       19.79600
O         27.57500       10.95200       19.55000
O         31.54900        9.48300       19.53700
N         28.40700        9.39100       20.87600
N         29.68900        9.17200       20.81700
N         31.87500       10.09300       16.49900
C         33.23900       10.51100       16.14900
C         33.23800       10.51200       16.14800
C         33.42800       10.31300       14.63800
O         32.91100        9.34800       14.08400
C         34.25600        9.63400       16.91200
C         34.25600        9.63500       16.91200
N         34.15400       11.21900       13.97800
C         34.52200       11.00200       12.59700
C         35.25900        9.67300       12.48400
O         36.16900        9.43600       13.25400
C         35.30600       12.13700       12.03200
C         35.51700       11.97300       10.48700
C         35.99100       13.21600        9.91300
C         36.42600       12.95600        8.47000
N         35.58300       12.38400        7.43600
N         34.86900        8.81700       11.50300
C         35.52400        7.55400       11.28500
C         34.95900        6.40200       12.07600
O         35.30800        5.23300       11.81000
N         34.09000        6.69300       13.03900
C         33.43000        5.64000       13.80500
C         32.48800        4.87100       12.88500
O         31.89800        5.45300       11.97500
C         32.65500        6.23300       14.98100
C         33.32300        6.77600       16.23400
C         32.17300        5.23300       15.93200
C         32.32200        7.24700       17.27100
C         31.47000        5.86000       17.10200
O         31.11700        6.96100       17.10800
O         31.51500        7.10900       17.21800
O         32.74000        7.90400       18.24700
O         30.92000        5.06700       17.94300
N         32.34700        3.56700       13.10900
C         31.53200        2.76600       12.22500
C         30.49600        1.94400       12.97600
O         30.60600        1.65200       14.17400
C         32.39100        1.82600       11.36800
O         32.97600        0.87100       12.26000
C         33.46200        2.52100       10.57800
N         29.50300        1.54100       12.18700
C         28.56300        0.49200       12.55300
C         28.61000       -0.53400       11.43600
O         28.35200       -0.20600       10.28800
C         27.13000        1.04700       12.71900
C         26.09900       -0.03400       13.06000
C         26.06700       -0.58200       14.29600
C         25.23300       -0.51600       12.07300
C         25.09300       -1.57800       14.61500
C         24.24500       -1.48700       12.37900
C         24.20400       -1.98400       13.62900
N         28.98900       -1.78000       11.80200
C         29.11300       -2.84100       10.83300
C         27.96400       -3.80800       11.02200
O         27.68900       -4.23200       12.14800
C         30.47500       -3.60500       11.07100
C         30.61600       -4.77200       10.14500
C         31.91000       -5.54800       10.25900
O         32.70600       -5.24000       11.17900
O         32.12700       -6.47600        9.45000
N         27.33200       -4.19800        9.91700
C         26.27100       -5.20400        9.93500
C         26.30000       -6.03400        8.64800
C         26.22200       -6.07200        8.68200
O         26.55100       -5.50300        7.56600
O         26.59800       -5.68300        7.57900
C         24.86500       -4.60400       10.11500
C         24.86500       -4.58300       10.19800
C         24.48000       -3.77900        8.89700
C         24.50900       -3.48700        9.20300
C         23.84600       -5.70600       10.36500
C         23.83500       -5.70000       10.17700
N         26.25300       -7.38600        8.77200
N         25.80200       -7.30700        8.91500
C         25.97200       -8.21100        7.61900
C         25.78400       -8.35800        7.91100
C         24.51400       -8.62000        7.67700
C         24.38000       -8.94200        7.84400
O         23.99200       -8.94100        8.74400
O         23.89900       -9.56300        8.79300
C         26.87700       -9.42900        7.60100
C         26.79200       -9.44200        8.26000
N         23.85000       -8.58600        6.53100
N         23.73300       -8.72500        6.71100
C         22.44700       -9.06600        6.45500
C         22.34700       -9.14800        6.48700
C         22.45600      -10.50800        5.90200
C         22.31100      -10.50300        5.78500
O         23.41700      -10.89900        5.18600
O         23.08100      -10.76400        4.83900
C         21.66700       -8.10600        5.55200
C         21.65400       -8.16300        5.54000
C         21.74600       -6.65500        5.99700
C         21.63900       -6.74000        6.03700
C         20.85700       -5.79400        5.04400
C         21.01300       -5.87600        4.90600
C         21.16100       -6.44500        7.41500
C         21.02000       -6.62900        7.44500
N         21.38700      -11.23900        6.24100
N         21.48400      -11.39200        6.27300
C         21.30000      -12.64400        5.83200
C         21.36500      -12.70300        5.67200
C         20.08600      -12.85200        4.89100
C         20.11700      -12.98500        4.89400
O         20.14600      -13.31600        3.74800
O         20.22000      -13.65400        3.84500
C         21.22100      -13.54800        7.12700
C         21.51000      -13.75600        6.76700
O         22.38500      -13.43300        7.94500
O         20.61600      -13.48700        7.80500
N         18.95800      -12.54900        5.38900
C         17.72300      -12.87700        4.69000
C         17.59100      -12.06400        3.44400
O         17.86700      -10.84700        3.41300
C         16.53800      -12.62300        5.59300
C         16.42000      -13.60300        6.71500
O         17.23000      -13.62600        7.53100
N         15.37800      -14.39200        6.74000
N         17.12200      -12.71100        2.38200
C         16.90500      -12.03200        1.10800
C         15.68000      -11.11700        1.14200
O         14.67300      -11.43100        1.77700
C         16.76800      -13.05100       -0.02500
C         18.07800      -13.70200       -0.43700
C         17.83800      -14.92400       -1.30700
C         19.12400      -15.70300       -1.53200
N         19.52600      -16.47300       -0.32200
N         15.77800       -9.98500        0.45000
C         14.67800       -9.01200        0.35600
C         15.17900       -7.60400        0.53600
O         16.37100       -7.31600        0.65100
N         14.21500       -6.68900        0.55400
C         14.49500       -5.26700        0.67800
C         14.48000       -4.81200        2.13200
O         13.61900       -5.21000        2.91600
C         13.48900       -4.45000       -0.13600
C         13.53100       -4.72500       -1.63100
C         12.60800       -3.81500       -2.41700
O         11.72400       -3.18500       -1.79900
O         12.76700       -3.72800       -3.65300
N         15.44700       -3.97100        2.47500
C         15.57400       -3.40900        3.82000
C         15.66500       -1.89000        3.72400
O         16.64000       -1.35700        3.18300
C         16.86400       -3.86600        4.51500
C         17.01600       -5.34500        4.75700
C         17.18700       -6.26200        3.72500
C         17.08700       -5.82400        6.07900
C         17.41400       -7.62000        3.99200
C         17.33100       -7.16200        6.35500
C         17.49600       -8.05900        5.31300
O         17.70400       -9.36500        5.62700
N         14.67500       -1.18600        4.25400
C         14.72500        0.26500        4.32200
C         15.32900        0.71900        5.63900
O         15.02200        0.15700        6.66000
C         13.34100        0.86100        4.13000
O         12.85900        0.58400        2.81000
N         16.16700        1.74600        5.57900
C         16.83500        2.24100        6.76000
C         16.93500        3.75500        6.70900
O         16.69200        4.40700        5.68600
C         18.24200        1.56300        6.92900
C         19.17200        1.82300        5.77600
C         19.96200        2.98900        5.73200
C         19.27800        0.92200        4.72000
C         20.82700        3.21600        4.65500
C         20.13800        1.14800        3.66300
C         20.89500        2.32200        3.63300
N         17.29700        4.32400        7.86700
C         17.35800        5.76800        7.98600
C         18.29900        6.12500        9.12400
O         18.61200        5.30000       10.00000
C         15.95300        6.38900        8.23000
C         15.25300        5.86500        9.44100
C         14.50700        4.66600        9.39100
C         15.29200        6.51100       10.66000
C         13.84100        4.20200       10.48300
C         14.62800        6.02700       11.76700
C         13.91100        4.86400       11.66700
O         13.25300        4.33200       12.79900
N         18.72600        7.38900        9.11200
C         19.40100        8.00200       10.26200
C         18.33500        8.75700       11.04200
O         17.64300        9.60300       10.47100
C         20.48500        8.97600        9.76200
S         21.14500        9.94100       11.13100
N         18.11200        8.37600       12.30200
C         16.97300        8.94000       13.01000
C         16.98600       10.47000       13.10900
O         15.98100       11.09100       12.78800
C         16.61600        8.16100       14.28300
C         16.95100        8.35900       14.44200
O         17.55100        8.41100       15.25200
O         15.74800        8.68900       15.14200
N         18.09000       11.12500       13.54400
C         18.00700       12.60400       13.69200
C         17.88300       13.32100       12.37700
O         17.47500       14.49800       12.37200
C         19.26600       12.96900       14.44700
C         20.24700       11.83600       14.12300
C         19.35100       10.57500       14.10900
N         18.22800       12.67800       11.27900
C         18.26200       13.33300        9.96400
C         17.27200       12.76000        8.96700
O         17.34100       13.04300        7.76000
C         19.69700       13.28100        9.39700
C         20.67900       13.92400       10.27800
N         21.90900       13.37800       10.48500
C         20.59600       15.09700       10.96200
C         22.56000       14.20100       11.27600
N         21.82000       15.24600       11.58800
N         16.29900       11.96600        9.45000
C         15.43600       11.27500        8.51200
C         14.63100       12.28100        7.65500
O         14.55700       12.10600        6.43100
C         14.50400       10.32600        9.28700
C         13.56500        9.57500        8.35000
C         12.74600        8.52900        9.01900
O         12.42900        8.63200       10.19800
N         12.35200        7.46500        8.30700
N         13.99200       13.25300        8.30000
C         13.18000       14.18100        7.48500
C         13.99800       15.03200        6.53200
O         13.47700       15.39900        5.47700
N         15.27800       15.24900        6.83000
C         16.21200       15.93700        5.92300
C         16.49300       15.08300        4.70900
O         17.10000       15.57500        3.72600
C         17.52300       16.27700        6.61000
N         16.15500       13.79900        4.74100
C         16.34900       12.91600        3.60400
C         17.39900       11.85900        3.78700
O         17.73100       11.16300        2.81000
N         17.96400       11.70700        4.98900
C         19.04200       10.74200        5.22400
C         18.43000        9.35500        5.46800
O         18.21500        8.90100        6.59700
C         19.95700       11.20300        6.35700
C         21.20400       10.37000        6.42400
S         22.46000       11.13200        7.50000
C         23.68600        9.79800        7.37300
N         18.13700        8.70200        4.33100
C         17.47500        7.41600        4.25600
C         18.13100        6.56500        3.18000
O         18.86900        7.07000        2.32900
C         15.95000        7.56000        3.95700
C         15.28000        8.45000        5.00400
C         15.71600        8.11500        2.55600
N         17.84400        5.26000        3.18100
C         18.37800        4.40800        2.14100
C         17.61700        3.09800        2.08300
O         16.70100        2.83100        2.87600
N         18.00900        2.26900        1.11900
N         18.01000        2.27000        1.11900
C         17.39500        0.92400        0.97500
C         17.39700        0.92500        0.97700
C         18.46100       -0.00300        0.40600
C         18.46200       -0.00200        0.40700
O         19.06900        0.28000       -0.63900
O         19.06900        0.28100       -0.63900
C         16.17500        0.96100        0.05600
C         16.18200        0.96400        0.05600
C         15.49800       -0.42000       -0.08500
C         15.47900       -0.39600       -0.02700
C         14.14000       -0.32000       -0.78300
C         14.36400       -0.37600       -1.06900
C         14.28600        0.07300       -2.18400
C         13.13600        0.16200       -0.54700
N         12.87500       -0.12100       -2.75400
N         12.07500        0.00500       -1.62700
N         18.66400       -1.12600        1.09600
C         19.57000       -2.17200        0.64000
C         18.74500       -3.39900        0.30900
O         17.85200       -3.81000        1.06600
C         20.70700       -2.47700        1.66200
C         20.18300       -2.74700        3.06300
C         21.55600       -3.64100        1.18900
N         19.07100       -4.00700       -0.84200
C         18.41600       -5.23900       -1.29000
C         19.43200       -6.36900       -1.17600
O         20.52600       -6.28600       -1.71700
C         17.96000       -5.11200       -2.71100
O         17.03400       -3.98700       -2.77800
C         17.23600       -6.36700       -3.17600
N         19.02000       -7.44600       -0.47900
C         19.83500       -8.67700       -0.37700
C         19.28800       -9.64800       -1.39400
O         18.11100      -10.02000       -1.32200
C         19.78800       -9.24600        1.00100
C         20.57300      -10.55300        1.09900
C         20.27400       -8.25200        2.04300
N         20.08200      -10.06400       -2.37700
N         20.09100      -10.05200       -2.38400
C         19.61400      -11.01300       -3.39900
C         19.66200      -10.95900       -3.45700
C         20.39100      -12.34000       -3.46400
C         20.33300      -12.31400       -3.36200
O         21.41500      -12.38800       -2.76700
O         21.39800      -12.42100       -2.73000
C         19.46300      -10.39900       -4.77000
C         20.08000      -10.51400       -4.82400
C         20.47700       -9.44700       -5.08000
C         19.32300       -9.27600       -5.30400
O         21.57800       -9.54500       -4.51100
O         20.00700       -8.32800       -5.82300
N         20.10400       -8.39900       -5.97000
N         18.01900       -9.20300       -5.16100
O         19.87900      -13.37600       -4.03000
O         19.65200      -13.25300       -3.84400
Cu2+      22.43400       11.43900       10.24600
O         17.22100       16.63000       14.09900
O         35.22500       13.93500       -2.25900
O         26.15400      -15.41100        0.13400
O         13.40400       -7.29400       18.74000
O         28.67600       18.90000       -4.21400
O         23.17000       -9.71400       12.98700
O         12.23600       -2.05100        2.31500
O         18.14000       17.26300       10.09100
O         13.62700        9.20900       17.83500
O         10.59300       -8.44200       10.51100
O         16.57600      -12.01000       12.14600
O         30.98700       -7.78700       -2.86700
O         19.11300        2.00100       22.92200
O         26.66600       -4.87400       14.71800
O         18.16000       -1.42600       -2.89300
O         29.58600       16.98800       12.44600
O         30.77800        4.74700       -0.13700
O         29.88000       -2.06700       14.58300
O         25.08600        5.79500       21.67500
O         31.12900       17.50100        9.43800
O         19.07100      -10.62900        7.67400
O         25.02000       -9.11500       11.23600
O         10.13500       -6.41800       12.21800
O         11.45200       -4.48000       15.96100
O         22.52700       -4.14300       16.68000
O         34.32800        2.38700       14.92800
O         28.82800       -6.78500       12.42800
O         13.39200      -14.37300        9.07200
O          8.38400      -10.05500       10.69500
O         24.00700       -5.51300       14.75500
O         14.32200       -4.90300       19.99600
O         35.30200        9.39100        7.75000
O         32.37100       -0.78400       14.47100
O         22.21700        5.44600       -4.24200
O         31.61700       -9.90700        4.23000
O         13.48000      -13.35800        3.26600
O         28.65300      -14.56600        2.92300
O         14.46000       -0.62600       14.27700
O          9.78000       -5.83800       -0.85200
O         15.57100      -13.46200       15.57100
O         16.88600      -17.73900        0.22100
O         28.90500        0.96600       16.29200
O         19.67400      -15.76200        2.45000
O         12.85500        5.89600        6.12200
O         10.87900       -5.36400        3.16500
O         27.62800       18.78700       12.77200
O         33.24400       -2.86500        3.24600
O         24.04300       15.46500       13.90300
O          6.20000       -5.05200       11.07100
O         15.63800        4.23900       -7.31200
O         21.89900       17.77000       12.98300
O         24.40100        0.82000       -5.69300
O          7.69300        1.95900       10.51700
O         16.23400       18.17700        2.88500
O         13.52700      -13.20600        5.90800
O         10.29100        7.03300       11.08400
O         34.41600       10.10000       -0.01600
O         16.30500        0.12700       16.17200
O         11.62700        2.54100        1.51800
O          9.19800       -8.02400        8.30400
O         35.30500       10.47600        2.83000
O         18.79400      -11.00600       10.32900
O         29.82900       14.44500       17.76200
O         19.51500       14.47300        2.42400
O         27.58000       18.36500        7.45100
O         15.03300        2.14900       17.80000
O         35.40000       -0.34600        5.99800
O         36.04000       14.44800        3.42200
O         32.86700       -0.07600       -0.60500
O         29.36400        6.50200       19.55100
O         24.11700        0.12500       18.22500
O         24.46600       17.64200       11.35400
O         15.25600       -3.69300       -4.75900
O         18.26000      -10.91500       18.70000
O         20.95000       -0.87000       20.46700
O         10.41100       -2.69600        0.45700
O         13.73900       17.73000        4.04600
O         36.56200        4.39700        9.47100
O         39.19700       14.36200        9.44300
O         30.69300        1.88400       -1.57500
O         21.67500       17.77700        3.53800
O          4.61100       -9.80400        6.68900
O         22.79500        9.69000       -1.19100
O          6.86700        0.50400       13.83500
O         13.42400       -6.70000       -4.62400
O         37.44700       -6.01900        5.00200
O         19.58600       -2.16400       18.43600
O         26.64900       14.94500       -2.45000
O          8.89000       -5.50300        8.19900
O         30.16200       -8.10500        8.53200
O         21.13500      -11.18700       11.65900
O         16.22800      -10.59800       -3.26600
O         14.83900       -3.35900       17.72000
O         26.82300       -3.56800       17.14300
O         13.44700       10.88300        2.31600
O         28.72700       -1.54700       17.00100
O         24.34500       -2.63400       18.11600
O         16.92700       -1.51700       18.25900
O         37.91500        8.98900        9.24500
O         12.77500        5.77100       19.60100
O         24.37700       14.15400       -1.06300
O         23.80100        1.07600       23.03700
O         11.76100        0.57100       13.25500
O         32.87700       -5.26900       13.95400
O         33.44800        5.16500        0.19400
O         23.86100      -13.01500       -3.62900
O         20.34200       -4.48800       19.67000
O         33.58000       16.09800        8.79200
O         27.64000       -5.02900       -2.87200
O         18.65700      -11.89500       19.71500
O         16.36500       -4.37300       21.91000
O         16.56200        2.97800       23.54100
O         22.51800      -11.29100        9.24100
O         20.61700       16.46400        0.83200
O         12.50000       -3.35200       21.21200
O         26.60000        1.47800       17.81500
O          6.75200       -9.01100        8.25100
O         37.47000        9.44200       15.67500
O          6.61000       -9.02300       12.63400
O         26.18100       14.96600       -5.15500
O         27.23500       12.98500       21.27500
O         16.06000      -13.80800       14.21000
O          7.79500       -1.24600        2.95600
O         31.82400       -3.80900       -2.37700
O         34.32200       -2.69000       13.87500
O         10.62000       -8.03000        2.43400
O         29.15800        1.21900       -3.92500
O         35.30800        8.92400        5.13200
O         11.14400        3.47500        5.87100
O         23.65200       11.76900       -2.26900
O         26.34800       20.73600        1.95500
O         21.66700       14.59100       -0.75600
O         22.10700      -17.21100       -1.33300
O         12.53000       11.82200        4.58800
O         37.57300       -4.11200        3.11600
O         35.23600        4.13300        2.23100
O         16.47200        0.19700       -4.39800
O         21.91900       -6.32200       18.66300
O         26.79500       19.63400       10.02000
O         19.01200       -5.16900       21.77200
O         34.40300       -3.74100        0.26700
O         33.97800        2.76400       -1.19400
O         23.83300       -2.81300       20.79400
O         10.85600        2.94900       12.06900
O         30.72100        2.48600       17.98700
O         22.56900       19.55400        1.91800
O         15.71000       -0.25000       20.46600
O         18.26600      -13.58700        9.77300
O          9.27100       -2.09600       18.31000
O         12.48700        2.51500       17.04300
O         12.45900       -2.99000       23.76500
O         25.37500       -0.89600       21.54000
O         32.88800        0.21800       17.05200
O         20.66500       19.27500        5.87400
O         38.77400       15.12500        6.80600
O         18.28800      -17.19400        4.17500
O         26.97600        1.76000       -5.85600
O         18.27800      -12.79500       22.48600
O         37.42300        4.42600        0.63300
O         30.73300       -6.47800       -5.12800
O         38.07200       11.31800        4.89500
O         13.03000       -0.85400       20.32600
O         18.81800      -16.14100       11.16800
O         23.03900       20.28400        7.34500
O          6.34500        7.23500       19.03100
O         25.05700       -7.61200       11.96900
O         37.20000       12.94700        5.38300
O         32.56600       -2.83700       -2.86700
O         25.11600       -6.70000        5.23500
O         37.14800       -8.23500        3.05200
O         23.61000        7.13300       -3.38700
O         25.61200       19.28800        9.08100
O         26.61500        3.68300       19.35800
O          7.53800       -6.53800       12.97000
O         17.88800        7.11800       -4.18000
O         26.25000       20.38200        1.14700
O         14.82500        3.00400       19.07500
O         26.89600       21.02600        3.20500
O         21.84900      -10.40000       10.63000
O         19.15100       15.86400        2.10100
O          7.77700       -5.76000       -2.62500
O          6.38600       -8.94100       11.08300
O          5.24400       -7.85900        9.71900
O         34.67500        9.94000       -1.49200
O         26.25200        8.31800       21.73600
O         22.05700       -2.92600       21.77100
O         24.27800       20.50600        3.08100
O         24.89100       11.84600       -1.73900
O         12.96800        1.96400       14.51900
O         10.91800        5.03400        7.83300
O         13.04300       -2.25700       16.09600
O         23.06900        0.27200       22.47600
O         12.20900       10.86300        5.42600
O         14.64600        2.35100       20.55400
O          4.84400       -8.10200        8.77700
O         39.64600        4.66100        2.47400
O         37.21900        3.30900       13.14900
O         26.20600        3.03400       21.86000
O         15.94900      -12.41300       13.02700
O         27.55500       21.69100        9.80900
O         24.15000        8.97700       -1.92300
O         19.54700        6.76700       -4.40000
O         19.48200       -9.90500        7.94300
O         34.32700       14.46200        4.87800
O         21.98400      -18.47600       -2.24200
O         18.07000       -9.95000       12.43700
O         15.71000       11.26100        0.74900
O         29.04900       -4.78900       -2.86400
O          9.19800       -2.75500       -3.15000
O          5.69600       -6.65300        9.01600
O         10.08500        4.70000       10.07100
O         24.86800       -8.40300        4.07200
O         34.17500        4.55800        3.68700
O         35.88600        6.67100        3.98800
O         33.34300       10.44900       20.67800
O         24.38000       19.87500        5.16700
O         32.92700        2.54200        5.47400
O         11.04800       14.69000        4.59900
O         14.35100       -1.04900       -5.29900
O         19.02300       19.25300        8.31100
O         11.89600       -0.50400       17.83400
O          6.97800       -5.82100        8.45600
O         31.32500       11.60000       -0.30900
O         33.51100       -3.49200        2.69200
O         32.59400        7.38100       19.82900
O         23.71400       19.65600        9.78400
O         22.82700        4.29400       -5.03100
O         30.94000        6.06700       -0.30200
