2773
Selenow
N        -38.86300       26.85500       29.10200
C        -38.12600       27.47700       30.23500
C        -37.39300       28.74200       29.79900
O        -36.94400       28.85600       28.65600
C        -37.14700       26.47000       30.84200
C        -37.83900       25.33600       31.58300
C        -36.85100       24.48400       32.35600
C        -37.56400       23.62800       33.39000
N        -36.61200       22.74800       34.11900
N        -37.27100       29.68500       30.72700
C        -36.63800       30.97000       30.45300
C        -35.16300       30.92200       30.07000
O        -34.38600       30.14200       30.61700
C        -36.83400       31.90500       31.64900
N        -34.79900       31.76900       29.11300
C        -33.42200       31.88800       28.64900
C        -33.00900       33.31800       28.95600
O        -33.54500       34.26500       28.38000
C        -33.32800       31.62900       27.14400
C        -33.94900       30.31500       26.70800
C        -33.58700       29.95300       25.28500
O        -33.53400       30.82000       24.41000
N        -33.34800       28.66900       25.03900
N        -32.06300       33.46700       29.87500
C        -31.59600       34.77800       30.29100
C        -30.15100       35.05500       29.88600
O        -29.26200       34.23200       30.10800
C        -31.75200       34.91800       31.81700
C        -33.23600       34.78900       32.17300
C        -31.19500       36.25000       32.29000
C        -33.50700       34.41000       33.61000
N        -29.93000       36.22100       29.28700
C        -28.60600       36.63100       28.83300
C        -28.19300       37.92100       29.54400
O        -28.96700       38.87800       29.60600
C        -28.62000       36.88900       27.32300
C        -29.50900       35.95900       26.50200
C        -28.91600       34.58100       26.30600
O        -27.69500       34.42000       26.49300
O        -29.67400       33.65300       25.95100
N        -26.97500       37.94400       30.07600
C        -26.46300       39.12500       30.76200
C        -25.17300       39.60000       30.09600
O        -24.15100       38.91500       30.15000
C        -26.16300       38.83900       32.24900
C        -27.45300       38.46500       32.98700
C        -25.52500       40.06300       32.88800
C        -27.23500       38.04300       34.42700
N        -25.22400       40.76600       29.45900
C        -24.04800       41.31900       28.80100
C        -23.44300       42.40600       29.68000
O        -24.12900       43.35200       30.07000
C        -24.41500       41.90900       27.43700
C        -24.95000       40.89800       26.44800
C        -26.27100       40.46100       26.51100
C        -24.12900       40.37100       25.45500
C        -26.76300       39.52300       25.60400
C        -24.60500       39.43300       24.54500
C        -25.92300       39.01200       24.62500
O        -26.39300       38.07300       23.73600
N        -22.15900       42.26800       29.99600
C        -21.48100       43.24400       30.84000
C        -20.13100       43.65200       30.26900
O        -19.41800       42.83200       29.69000
C        -21.27300       42.67800       32.24700
C        -20.34400       41.48500       32.29500
C        -20.81100       40.19900       32.02200
C        -18.98900       41.64700       32.58400
C        -19.94900       39.10200       32.03800
C        -18.11900       40.55600       32.60100
C        -18.60600       39.28900       32.32800
O        -17.75400       38.20700       32.34800
N        -19.77900       44.92000       30.44000
C        -18.50200       45.41600       29.94800
C        -17.35800       44.66200       30.61400
O        -17.15800       44.74100       31.82600
C        -18.38300       46.91400       30.21200
S        -16.67800       47.52300       30.33900
N        -16.61600       43.93000       29.79200
C        -15.48500       43.10500       30.21500
C        -14.42200       43.76700       31.09400
O        -13.91100       43.14600       32.02600
C        -14.81500       42.53000       28.96300
C        -13.55100       41.72500       29.20200
C        -12.82200       41.43300       27.88900
N        -13.69200       40.82900       26.88100
C        -14.49000       41.51200       26.06500
N        -14.53200       42.83700       26.12200
N        -15.24800       40.86700       25.18800
N        -14.08600       45.01700       30.79800
C        -13.04800       45.72400       31.54700
C        -13.54100       46.73000       32.58600
O        -12.73500       47.40600       33.22000
C        -12.12300       46.43500       30.56300
C        -12.88500       47.23900       29.53100
C        -12.06600       47.51900       28.28400
O        -11.51500       46.60400       27.66500
N        -12.00400       48.78700       27.89400
N        -14.85100       46.83500       32.76600
C        -15.39700       47.77200       33.74200
C        -15.52700       47.13100       35.11400
O        -16.09900       47.72600       36.02300
C        -16.77300       48.25300       33.30300
S        -16.83600       49.05000       31.66900
N        -15.00900       45.91400       35.25300
C        -15.08100       45.19000       36.51600
C        -16.54900       45.04200       36.91500
O        -16.94400       45.40900       38.02200
C        -14.32300       45.95200       37.60800
C        -14.35700       45.24000       38.94800
O        -14.04900       45.83100       39.98900
N        -14.72100       43.96100       38.92800
N        -17.35300       44.50900       36.00200
C        -18.77400       44.32100       36.25800
C        -19.17300       42.85100       36.30400
O        -20.34800       42.52800       36.47600
C        -19.60500       45.04600       35.19400
C        -19.56000       46.54200       35.29800
C        -19.08700       47.28000       36.34700
C        -20.05800       47.48200       34.33800
N        -19.26000       48.62300       36.09800
C        -19.85200       48.77300       34.87100
C        -20.65300       47.35700       33.07600
C        -20.23100       49.93500       34.18800
C        -21.03000       48.51400       32.39500
C        -20.81200       49.78600       32.95400
N        -18.19700       41.96100       36.15700
C        -18.47800       40.53100       36.19500
C        -19.06100       40.14800       37.55100
O        -20.03600       39.39800       37.63600
C        -17.20200       39.71700       35.95700
C        -17.43600       38.20900       35.99400
Se       -15.85900       37.19000       36.44100
C        -15.83800       37.51100       38.34100
N        -18.44400       40.66600       38.60600
C        -18.87100       40.39900       39.97200
C        -20.37400       40.59500       40.15200
O        -21.08600       39.66600       40.53500
C        -18.09600       41.30700       40.93600
C        -17.10600       40.68000       41.92300
C        -16.41800       39.46700       41.31100
C        -16.08200       41.73500       42.32900
N        -20.85900       41.79600       39.86200
C        -22.27800       42.09300       40.01000
C        -23.14300       41.29300       39.03700
O        -24.31400       41.02500       39.31000
C        -22.51200       43.59400       39.82800
C        -22.29200       44.11100       38.41800
C        -22.32100       45.63400       38.40500
N        -21.15500       46.19500       39.08500
C        -21.04000       47.46300       39.46700
N        -22.02500       48.32300       39.24400
N        -19.93100       47.87500       40.06700
N        -22.56400       40.91000       37.90400
C        -23.29300       40.12900       36.91300
C        -23.49000       38.70600       37.42300
O        -24.58000       38.14100       37.31200
C        -22.53000       40.09500       35.58500
O        -22.54600       41.36100       34.95000
N        -22.42600       38.13300       37.97900
C        -22.47200       36.77600       38.51500
C        -23.44700       36.72500       39.67900
O        -24.14200       35.72700       39.87200
C        -21.08100       36.33600       38.97300
N        -23.49100       37.80300       40.45700
C        -24.39600       37.88100       41.59700
C        -25.83900       37.84600       41.11600
O        -26.62400       36.99700       41.53800
C        -24.13900       39.16400       42.38600
C        -25.28900       39.56300       43.25300
C        -25.86900       38.81900       44.24000
C        -26.01300       40.79600       43.20200
N        -26.90700       39.51300       44.81000
C        -27.02000       40.73100       44.19000
C        -25.91000       41.95300       42.42200
C        -27.92100       41.78000       44.41500
C        -26.80000       42.99400       42.64400
C        -27.79800       42.89900       43.63100
N        -26.18400       38.77700       40.23500
C        -27.53000       38.84700       39.68200
C        -27.90700       37.51600       39.04200
O        -29.05700       37.08500       39.11500
C        -27.60900       39.97000       38.64700
C        -27.48100       41.37200       39.24400
C        -27.30700       42.39900       38.13700
C        -28.71900       41.66900       40.08400
N        -26.92900       36.86600       38.41600
C        -27.15800       35.57300       37.77600
C        -27.63000       34.55300       38.80500
O        -28.60600       33.83400       38.57700
C        -25.87000       35.06600       37.12000
O        -25.89600       33.65900       36.95700
N        -26.93000       34.49500       39.93400
C        -27.27300       33.55700       40.99800
C        -28.59000       33.91600       41.67200
O        -29.31100       33.03000       42.12900
C        -26.14600       33.48500       42.03600
C        -24.83300       32.94100       41.48400
C        -23.72900       32.88500       42.52600
O        -23.72500       32.01500       43.40000
N        -22.79300       33.82100       42.44300
N        -28.90800       35.20600       41.73900
C        -30.16800       35.63200       42.34000
C        -31.32200       35.03100       41.53800
O        -32.29600       34.54300       42.10500
C        -30.27800       37.15800       42.32400
C        -29.35500       37.88000       43.29500
C        -29.76300       37.69800       44.74700
O        -30.90200       37.25400       45.00200
O        -28.94900       38.01500       45.63900
N        -31.18900       35.06600       40.21400
C        -32.20500       34.53200       39.31700
C        -32.25100       33.00500       39.33900
O        -33.32700       32.41000       39.38400
C        -31.95700       35.01700       37.88600
C        -32.00600       36.53200       37.67200
C        -31.73600       36.84900       36.20900
C        -33.36600       37.07200       38.09000
N        -31.08100       32.37600       39.30500
C        -30.99500       30.92000       39.32800
C        -31.55400       30.35800       40.63500
O        -32.12000       29.26300       40.66400
C        -29.53900       30.47200       39.16100
C        -28.85600       30.73200       37.81000
C        -27.35300       30.51300       37.94400
C        -29.44200       29.81000       36.74900
N        -31.39600       31.12100       41.71000
C        -31.86300       30.70700       43.02500
C        -33.37700       30.84900       43.16000
O        -34.04700       29.95700       43.68200
C        -31.16900       31.54300       44.10800
C        -31.38600       31.03700       45.49800
N        -30.75400       29.91700       45.99100
C        -32.17300       31.49700       46.50300
C        -31.14100       29.70700       47.23800
N        -32.00300       30.65300       47.56900
N        -33.90800       31.96600       42.67400
C        -35.33700       32.24600       42.75600
C        -36.19200       31.47200       41.75500
O        -37.30300       31.05400       42.08000
C        -35.60600       33.76000       42.57300
O        -34.97200       34.48900       43.63100
C        -37.10300       34.04600       42.59100
N        -35.67200       31.27700       40.54800
C        -36.40200       30.56700       39.50200
C        -35.66600       29.30000       39.07000
O        -35.58800       28.98700       37.88000
C        -36.59200       31.48400       38.29200
C        -37.22500       32.80700       38.62700
C        -38.58500       32.89600       38.91600
C        -36.45700       33.96500       38.66300
C        -39.16800       34.12400       39.23800
C        -37.02800       35.19300       38.98400
C        -38.38600       35.27400       39.27000
N        -35.13900       28.56700       40.04400
C        -34.38800       27.34600       39.77600
C        -35.13500       26.32100       38.92900
O        -34.51400       25.45900       38.30900
C        -33.96600       26.69300       41.09400
O        -35.08900       26.18700       41.79700
N        -36.45900       26.41700       38.89600
C        -37.26000       25.47100       38.12900
C        -37.88900       26.01100       36.84900
O        -38.37800       25.23600       36.02900
C        -38.34200       24.87100       39.02900
C        -37.75600       23.97000       40.08700
C        -38.75400       23.51200       41.13000
O        -39.85100       23.03700       40.76600
O        -38.42000       23.61600       42.32700
N        -37.87300       27.32700       36.66900
C        -38.45900       27.92400       35.47100
C        -37.39500       28.43500       34.50700
O        -37.71300       28.97700       33.44900
C        -39.38800       29.08300       35.84500
C        -40.39400       28.76800       36.93900
C        -39.76300       28.75100       38.32000
O        -39.31400       29.82600       38.77700
O        -39.71600       27.67000       38.94500
N        -36.13000       28.26000       34.87200
C        -35.03300       28.73200       34.03300
C        -34.28600       27.62900       33.29700
O        -33.90900       26.61600       33.88700
C        -34.01400       29.54200       34.86700
C        -34.57200       30.93500       35.14900
C        -32.67500       29.62300       34.13600
C        -33.69700       31.77500       36.04600
N        -34.07300       27.83900       32.00200
C        -33.34300       26.88200       31.18300
C        -31.87300       27.14600       31.46000
O        -31.09200       26.22100       31.68600
C        -33.62500       27.11500       29.69900
C        -33.15400       25.98500       28.79200
C        -33.20800       26.35300       27.32100
O        -34.23800       26.90500       26.88200
O        -32.22500       26.08300       26.59800
N        -31.51300       28.42600       31.45000
C        -30.14300       28.84200       31.70600
C        -30.00600       30.35400       31.82700
O        -30.83800       31.11700       31.33000
C        -29.22500       28.35200       30.58000
C        -29.39800       29.08500       29.25600
C        -28.91400       30.38300       29.08400
C        -30.04500       28.48100       28.18000
C        -29.06800       31.06400       27.87500
C        -30.20400       29.15300       26.96100
C        -29.71300       30.44400       26.81800
O        -29.87000       31.11100       25.62100
N        -28.94100       30.76900       32.50200
C        -28.60300       32.17500       32.65800
C        -27.20200       32.22600       32.07300
O        -26.31000       31.50400       32.52700
C        -28.54700       32.60500       34.13100
C        -27.96200       34.00600       34.23600
C        -29.94100       32.56600       34.73100
N        -27.00500       33.05000       31.05200
C        -25.69900       33.14100       30.41800
C        -25.05400       34.49500       30.62000
O        -25.70500       35.53200       30.49200
C        -25.82400       32.84100       28.92800
N        -23.76800       34.47200       30.94300
C        -23.00000       35.69100       31.15200
C        -22.12800       35.94800       29.92700
O        -21.32400       35.09900       29.53300
C        -22.13000       35.54900       32.40200
C        -22.88900       35.58100       33.73100
C        -22.00300       35.05700       34.84600
C        -23.33800       37.00600       34.01800
N        -22.30000       37.11900       29.32500
C        -21.54100       37.48800       28.13700
C        -20.54300       38.61200       28.37600
O        -20.93400       39.77200       28.50600
C        -22.47500       37.94400       27.01200
C        -23.34100       36.86100       26.44900
N        -24.43900       36.36300       27.11500
C        -23.29100       36.21100       25.26500
C        -25.03200       35.45400       26.36100
N        -24.35600       35.34400       25.23200
N        -19.24300       38.29300       28.44900
C        -18.29800       39.39100       28.66100
C        -18.39700       40.28300       27.42100
O        -18.30800       39.78800       26.29700
C        -16.95400       38.67400       28.78100
C        -17.16200       37.39800       28.00300
C        -18.55000       36.99200       28.41700
N        -18.59200       41.58400       27.61600
C        -18.74000       42.49100       26.47800
C        -17.78700       43.68200       26.44800
O        -16.81300       43.73700       27.19500
C        -20.17900       43.00600       26.41600
C        -20.69700       43.11300       24.99800
O        -19.96500       43.62800       24.12700
O        -21.84300       42.68600       24.75700
N        -18.09200       44.64100       25.57500
C        -17.27300       45.83800       25.40900
C        -17.72200       47.03900       26.24300
O        -18.79400       47.03800       26.85000
C        -17.21200       46.26700       23.92700
O        -18.53300       46.55200       23.45600
C        -16.60500       45.16000       23.07700
N        -16.87700       48.06500       26.24000
C        -17.10500       49.28800       26.99100
C        -18.50000       49.76400       27.35800
O        -19.39600       49.85200       26.51800
N        -18.65800       50.08200       28.64000
C        -19.91000       50.59800       29.16600
C        -21.18700       49.80000       29.00000
O        -22.24400       50.24100       29.45500
N        -21.11700       48.63400       28.37000
C        -22.32500       47.84500       28.17600
C        -22.72200       46.97100       29.35900
O        -21.89200       46.29500       29.96500
C        -22.20700       46.95600       26.93200
C        -23.53400       46.30500       26.55300
C        -23.40800       45.23500       25.47800
N        -24.72900       44.74600       25.08100
C        -24.94500       43.77800       24.19600
N        -23.92700       43.17700       23.59900
N        -26.18700       43.41100       23.90400
N        -24.00900       47.01400       29.68000
C        -24.60700       46.20300       30.73500
C        -26.07000       46.10600       30.33200
O        -26.84500       47.03900       30.53900
C        -24.50400       46.85300       32.11300
C        -25.06800       45.99400       33.21100
C        -24.33300       44.92700       33.72100
C        -26.35700       46.20700       33.68900
C        -24.87500       44.07800       34.68600
C        -26.91000       45.36400       34.65300
C        -26.16700       44.29800       35.15300
N        -26.43900       44.97200       29.75400
C        -27.79600       44.77300       29.27900
C        -28.24900       43.34800       29.57400
O        -27.47400       42.40400       29.43100
C        -27.81500       45.05200       27.77900
C        -29.16800       45.11400       27.12300
C        -29.05700       45.61000       25.69800
O        -28.09300       45.21100       25.01300
O        -29.92400       46.39500       25.26200
N        -29.50300       43.19700       29.98600
C        -30.04100       41.88400       30.31000
C        -31.26000       41.54100       29.46000
O        -32.13000       42.38100       29.22800
C        -30.42300       41.79900       31.80400
C        -29.20400       42.14000       32.66800
C        -30.92800       40.40700       32.13900
C        -29.50500       42.24100       34.14600
N        -31.31000       40.29600       28.99700
C        -32.40400       39.82100       28.16200
C        -33.05100       38.57800       28.75800
O        -32.37900       37.75100       29.37300
C        -31.88500       39.48400       26.76300
C        -31.37800       40.67200       25.99600
C        -32.25700       41.48700       25.29000
C        -30.02000       40.97900       25.98100
C        -31.79200       42.58800       24.57400
C        -29.54400       42.07900       25.26800
C        -30.43300       42.88600       24.56500
N        -34.36000       38.45500       28.56700
C        -35.11400       37.30800       29.05100
C        -36.00800       36.84700       27.90600
O        -36.88700       37.58400       27.45400
C        -35.96500       37.69300       30.26400
S        -36.86500       36.30800       31.00000
N        -35.77200       35.63000       27.43200
C        -36.53900       35.08000       26.32100
C        -36.57000       36.06200       25.15300
O        -37.60600       36.25800       24.52600
C        -37.97100       34.75100       26.75200
C        -38.03100       33.63700       27.77600
O        -37.17000       32.75800       27.80600
N        -39.06500       33.65400       28.61000
N        -35.42800       36.68500       24.87900
C        -35.34400       37.62300       23.77400
C        -35.79800       39.04000       24.07400
O        -35.56100       39.94900       23.27500
N        -36.44800       39.23400       25.21600
C        -36.93100       40.55600       25.60100
C        -35.95400       41.28000       26.52100
O        -35.56700       40.75100       27.56200
C        -38.28900       40.47500       26.33500
C        -38.76100       41.87400       26.70000
C        -39.31700       39.78200       25.46300
N        -35.55900       42.48900       26.13300
C        -34.64200       43.28200       26.94200
C        -35.36900       43.74200       28.19900
O        -36.37200       44.45100       28.11500
C        -34.15700       44.51100       26.17200
C        -33.17700       45.35600       26.95900
C        -33.15900       46.81300       26.50600
O        -33.87600       47.61300       26.97200
N        -32.32400       47.13200       25.60700
N        -34.87200       43.33300       29.36100
C        -35.49100       43.72800       30.61600
C        -34.61100       44.69700       31.39300
O        -34.93900       45.08300       32.51500
C        -35.81900       42.50300       31.49900
C        -34.55600       41.68500       31.76300
C        -36.88200       41.65400       30.81600
C        -34.77600       40.51000       32.69800
N        -33.49200       45.09400       30.79400
C        -32.59200       46.04300       31.43900
C        -31.48800       46.55500       30.52800
O        -30.85000       45.79400       29.80000
C        -31.96600       45.44300       32.70000
C        -31.34100       46.49000       33.58500
C        -30.07200       46.99500       33.50300
C        -31.98400       47.20300       34.64600
N        -29.89000       47.98000       34.44500
C        -31.05300       48.12900       35.16100
C        -33.26600       47.15200       35.21000
C        -31.35800       48.99700       36.21400
C        -33.57200       48.01300       36.25500
C        -32.62200       48.92500       36.74700
N        -31.27400       47.86400       30.60000
C        -30.26400       48.56000       29.81600
C        -29.71400       49.67900       30.69500
O        -30.43800       50.60200       31.07100
C        -30.89700       49.11300       28.53600
C        -29.95600       49.89800       27.65300
C        -28.51600       49.81900       28.08100
O        -27.99600       48.69600       28.09500
O        -27.89800       50.86400       28.38900
N        -28.42700       49.58600       31.01500
C        -27.77800       50.55700       31.88900
C        -28.07700       52.02300       31.60900
O        -28.53600       52.73600       32.48900
C        -26.26500       50.32300       31.89000
C        -25.51500       51.15400       32.91900
C        -24.03000       50.87000       32.83900
N        -23.46200       51.37400       31.59400
C        -23.22900       52.65800       31.34600
N        -23.50900       53.57300       32.26400
N        -22.72600       53.03200       30.17700
N        -27.80300       52.48400       30.40000
C        -28.05400       53.88000       30.06600
C        -29.51000       54.23600       30.22700
O        -29.85900       55.22600       30.87100
C        -27.62600       54.15600       28.64000
C        -26.22400       53.70800       28.39500
C        -25.84000       53.89200       26.96500
C        -24.43900       53.38100       26.76600
N        -23.98400       53.67300       25.38700
N        -30.35600       53.40600       29.63500
C        -31.79800       53.58500       29.67700
C        -32.27700       53.75300       31.11800
O        -33.00200       54.69500       31.44300
C        -32.45300       52.36300       29.04800
C        -33.95300       52.39400       28.97400
C        -34.49200       51.16700       28.27400
O        -34.31900       50.04000       28.75300
N        -35.15800       51.37500       27.14500
N        -31.85800       52.82700       31.97600
C        -32.23900       52.84100       33.39000
C        -31.38800       53.79200       34.21900
O        -31.75300       54.13700       35.34600
C        -32.11200       51.44200       34.00500
C        -32.98600       50.34600       33.42200
C        -34.47000       50.65700       33.48200
O        -34.88300       51.49600       34.31400
O        -35.23000       50.05600       32.68300
N        -30.23900       54.17700       33.67700
C        -29.36100       55.07500       34.39900
C        -28.72900       54.40800       35.60000
O        -28.59900       55.03500       36.65000
N        -28.34300       53.14000       35.45200
C        -27.73900       52.42200       36.55800
C        -27.89400       50.91700       36.50000
O        -28.11800       50.34400       35.43700
N        -27.77200       50.27500       37.65900
C        -27.88600       48.82700       37.75900
C        -29.12000       48.43800       38.57200
O        -29.50300       49.12800       39.51400
C        -26.61500       48.23800       38.37300
C        -25.36800       48.58400       37.60500
C        -24.74100       49.81500       37.78100
C        -24.85600       47.70300       36.66000
C        -23.62200       50.16200       37.02500
C        -23.74000       48.03800       35.89900
C        -23.12200       49.27000       36.07900
N        -29.75200       47.30900       38.20100
C        -30.95800       46.78400       38.84900
C        -30.81200       46.19400       40.23500
O        -29.77800       45.60700       40.58100
C        -31.42900       45.73600       37.85800
C        -30.13800       45.14500       37.41700
C        -29.27600       46.37600       37.17100
N        -31.87100       46.35400       41.00800
C        -31.92600       45.81800       42.34900
C        -32.36100       44.38700       42.12900
O        -33.01000       44.08300       41.13200
C        -32.98100       46.53400       43.16700
C        -32.97600       48.00400       42.99400
C        -33.36700       48.71700       44.25500
O        -34.58800       48.84100       44.54200
O        -32.42800       49.15700       44.94700
N        -31.99000       43.50900       43.04400
C        -32.36900       42.11800       42.90800
C        -33.88100       41.98000       42.75900
O        -34.36300       41.23900       41.90300
C        -31.87200       41.33800       44.11700
N        -34.62900       42.70800       43.58300
C        -36.08400       42.65100       43.55700
C        -36.68600       43.04900       42.20600
O        -37.55000       42.35000       41.67200
C        -36.65800       43.53800       44.66500
C        -38.16800       43.44300       44.83800
C        -38.62600       44.20500       46.07600
C        -38.25900       45.68000       45.99200
N        -38.69700       46.43100       47.20000
N        -36.23400       44.17300       41.66000
C        -36.73200       44.65500       40.37900
C        -36.47200       43.65700       39.25000
O        -37.36500       43.35400       38.45900
C        -36.08800       46.01000       40.01000
C        -36.52600       46.43500       38.61900
C        -36.48100       47.07000       41.03200
N        -35.25000       43.14200       39.18000
C        -34.89800       42.18700       38.14000
C        -35.73300       40.91700       38.23700
O        -36.17600       40.38000       37.22200
C        -33.41100       41.83000       38.22300
C        -32.84500       41.07400       37.02200
C        -32.96200       41.95000       35.78500
C        -31.39400       40.69800       37.27500
N        -35.93700       40.43400       39.45700
C        -36.72200       39.22200       39.68100
C        -38.12400       39.44200       39.15800
O        -38.71800       38.58000       38.50800
C        -36.82000       38.90200       41.17300
C        -35.53100       38.43000       41.80700
C        -35.74100       38.12100       43.28000
C        -34.45600       37.65200       43.94000
N        -34.62500       37.52500       45.41300
N        -38.64900       40.61600       39.45900
C        -39.98400       40.94300       39.04500
C        -40.16100       41.03500       37.52800
O        -41.12800       40.50200       36.98800
C        -40.41000       42.22600       39.71500
C        -41.52000       42.84100       38.99400
C        -41.52300       44.30400       39.16800
O        -41.38600       44.78300       40.28500
N        -41.67000       45.04300       38.07200
N        -39.23000       41.69800       36.84600
C        -39.30300       41.82300       35.39600
C        -39.18100       40.45500       34.72000
O        -39.73800       40.23000       33.64300
C        -38.21000       42.76600       34.88800
C        -38.37100       44.20300       35.36100
C        -37.45200       45.15600       34.61700
N        -37.62500       46.52700       35.08300
C        -37.08200       47.59300       34.50300
N        -36.32700       47.45400       33.42300
N        -37.29100       48.79900       35.01200
N        -38.44400       39.54800       35.35400
C        -38.28000       38.20200       34.82400
C        -39.56900       37.42100       35.06000
O        -40.04000       36.70200       34.18600
C        -37.11500       37.46000       35.51900
C        -37.16400       35.97600       35.18800
C        -35.78400       38.04600       35.08900
N        -40.12700       37.58200       36.25500
C        -41.35800       36.90300       36.63700
C        -42.51400       37.24200       35.70100
O        -43.28900       36.37300       35.32400
C        -41.71500       37.25400       38.09000
C        -42.89500       36.48300       38.65400
C        -43.11400       36.75700       40.14000
N        -42.09200       36.14500       40.99100
C        -41.12700       36.81300       41.61500
N        -41.03100       38.13000       41.49200
N        -40.25200       36.16200       42.36900
N        -42.61800       38.50700       35.30900
C        -43.69300       38.94900       34.41700
C        -43.57300       38.35200       33.01300
O        -44.53700       38.37800       32.23400
C        -43.71600       40.47800       34.30900
C        -44.09100       41.16000       35.61900
O        -44.89300       40.59100       36.39500
O        -43.59900       42.27600       35.86700
N        -42.39800       37.82600       32.67700
C        -42.19500       37.25000       31.35000
C        -42.28800       35.72400       31.32400
O        -42.28900       35.12100       30.25100
C        -40.85200       37.67100       30.77000
C        -40.76000       39.11400       30.27900
C        -39.30200       39.45800       30.03600
C        -41.54700       39.28300       28.98400
N        -42.39700       35.08100       32.47500
C        -42.50600       33.63600       32.45700
C        -43.83700       33.16100       33.01300
O        -44.23100       32.02400       32.68500
C        -41.34500       32.99800       33.22500
C        -41.21000       33.65100       34.60600
C        -40.03400       33.19800       32.45000
C        -39.96000       33.25500       35.35900
N        -14.20500       30.62900       17.41300
C        -13.23200       31.66600       17.86300
C        -13.51700       32.02500       19.31400
O        -12.60600       32.09400       20.14000
C        -13.36100       32.91300       16.99600
C        -12.18500       33.85300       17.14700
O        -11.03500       33.46500       16.94100
N        -12.46600       35.09800       17.50500
N        -14.78900       32.26900       19.61000
C        -15.21000       32.59800       20.96600
C        -15.86900       31.36400       21.56400
O        -16.84500       30.84300       21.02500
C        -16.19000       33.77500       20.96300
C        -15.56000       35.10400       20.56800
C        -14.30300       35.37200       21.38300
C        -13.83400       36.80900       21.23900
N        -14.81700       37.77300       21.80200
N        -15.32700       30.90200       22.68200
C        -15.83200       29.70500       23.33600
C        -17.22200       29.83200       23.94500
O        -17.58800       30.87200       24.49500
C        -14.84200       29.24600       24.40300
N        -17.99000       28.75500       23.83100
C        -19.33200       28.68500       24.39000
C        -19.27800       27.58500       25.44100
O        -19.07800       26.41300       25.12000
C        -20.35200       28.33100       23.31100
C        -20.31400       29.25700       22.11200
C        -21.50100       29.05100       21.20300
O        -21.94000       27.91900       20.99900
N        -22.02200       30.13800       20.64000
N        -19.44900       27.97200       26.69800
C        -19.38700       27.02900       27.80200
C        -20.73200       26.84100       28.50000
O        -21.41300       27.81000       28.83400
C        -18.32000       27.49300       28.81100
C        -16.95500       27.50300       28.11700
C        -18.30500       26.58100       30.02000
C        -15.89900       28.32400       28.81300
N        -21.10600       25.58200       28.71000
C        -22.36600       25.23700       29.35800
C        -22.08900       24.43700       30.63300
O        -21.30100       23.49000       30.61800
C        -23.22200       24.38000       28.41900
C        -23.17400       24.76400       26.94200
C        -24.00600       25.98500       26.61000
O        -24.83700       26.38800       27.44800
O        -23.83600       26.53600       25.50200
N        -22.73800       24.81400       31.72900
C        -22.56600       24.11100       32.99300
C        -23.91400       23.62300       33.50500
O        -24.78500       24.42700       33.83800
C        -21.94200       25.01800       34.07800
C        -20.53900       25.45700       33.65200
C        -21.87200       24.26900       35.40300
C        -19.91200       26.48300       34.57600
N        -24.09000       22.30600       33.55500
C        -25.33200       21.71900       34.04100
C        -25.12700       21.19900       35.46000
O        -24.23800       20.38600       35.70900
C        -25.77900       20.56900       33.13000
C        -26.09000       20.98900       31.71100
C        -25.06800       21.22400       30.79000
C        -27.40900       21.16500       31.29000
C        -25.35400       21.62300       29.48400
C        -27.70200       21.56500       29.98600
C        -26.67200       21.79200       29.08900
O        -26.95800       22.19200       27.80300
N        -25.94900       21.67200       36.38900
C        -25.83900       21.24700       37.77600
C        -27.18800       20.87200       38.36400
O        -28.20200       21.50800       38.07700
C        -25.22000       22.35400       38.62900
C        -26.08300       23.58800       38.72800
C        -26.08500       24.54600       37.71600
C        -26.91900       23.78900       39.82800
C        -26.89500       25.67300       37.79700
C        -27.73400       24.91300       39.91400
C        -27.71600       25.84800       38.89800
O        -28.51800       26.96400       38.98500
N        -27.19200       19.83800       39.19700
C        -28.42100       19.38600       39.83500
C        -29.03400       20.52400       40.65000
O        -28.44700       21.00600       41.61600
C        -28.14100       18.16700       40.71600
S        -29.33400       17.91400       42.05700
N        -30.22500       20.93300       40.23100
C        -30.97900       22.02100       40.84300
C        -31.22200       21.95700       42.35600
O        -31.22200       22.98800       43.02800
C        -32.33000       22.13800       40.12800
C        -33.29900       23.12500       40.73400
C        -34.69100       22.95400       40.14200
N        -34.69000       22.96700       38.67900
C        -34.45500       21.90500       37.91500
N        -34.20800       20.72600       38.47000
N        -34.46200       22.02300       36.59400
N        -31.42300       20.75700       42.88600
C        -31.72000       20.58800       44.30600
C        -30.57500       20.02300       45.15000
O        -30.73500       19.79900       46.34700
C        -32.95800       19.70400       44.43500
C        -32.83400       18.40200       43.67400
C        -34.18800       17.77100       43.39400
O        -35.11400       18.45500       42.91500
N        -34.31500       16.46500       43.67700
N        -29.41500       19.80100       44.53700
C        -28.27000       19.26200       45.27200
C        -27.43200       20.37400       45.88200
O        -26.36100       20.11600       46.43000
C        -27.37700       18.43600       44.34800
S        -28.19100       17.04600       43.50800
N        -27.91500       21.60600       45.77200
C        -27.19500       22.74900       46.30700
C        -25.82700       22.83200       45.63600
O        -24.80000       22.90900       46.31100
C        -27.01500       22.60700       47.82100
C        -26.27600       23.77700       48.43600
O        -25.76200       23.68800       49.55000
N        -26.22900       24.89000       47.71100
N        -25.82000       22.80500       44.30600
C        -24.57700       22.86700       43.54900
C        -24.45700       24.15000       42.72900
O        -23.49100       24.32700       41.98800
C        -24.45300       21.64500       42.62300
C        -24.21600       20.33700       43.34100
C        -23.83600       20.17100       44.63900
C        -24.28700       19.01900       42.77300
N        -23.66600       18.83700       44.91800
C        -23.93900       18.10500       43.79200
C        -24.61900       18.52200       41.50500
C        -23.90000       16.72000       43.58000
C        -24.58200       17.14300       41.29400
C        -24.22700       16.26000       42.32900
N        -25.43000       25.04700       42.85600
C        -25.38400       26.30500       42.11600
C        -24.16200       27.11800       42.53600
O        -23.46200       27.68500       41.69700
C        -26.63700       27.13500       42.38400
C        -26.57500       28.51400       41.75000
Se       -27.80800       29.77100       42.52500
C        -26.69200       30.39500       43.98300
N        -23.93100       27.18000       43.84300
C        -22.80800       27.91700       44.40800
C        -21.49800       27.58400       43.70500
O        -20.83300       28.46500       43.15900
C        -22.69100       27.59600       45.90000
C        -22.93700       28.71900       46.91300
C        -23.99400       29.68600       46.40100
C        -23.36200       28.09600       48.23800
N        -21.13300       26.30700       43.71700
C        -19.89100       25.86600       43.09300
C        -19.91000       26.05400       41.57800
O        -18.85900       26.20400       40.95300
C        -19.61100       24.39800       43.43800
C        -20.54600       23.37700       42.80600
C        -20.29400       21.98800       43.39000
N        -20.77900       21.88100       44.76500
C        -20.54400       20.85100       45.57400
N        -19.81800       19.82100       45.15700
N        -21.04400       20.84900       46.80100
N        -21.10200       26.04900       40.98900
C        -21.22300       26.23200       39.54600
C        -20.97400       27.69400       39.19400
O        -20.27500       27.99500       38.22600
C        -22.61200       25.81100       39.06400
O        -22.80400       24.41400       39.20300
N        -21.54900       28.59400       39.98500
C        -21.38000       30.02300       39.76500
C        -19.91800       30.40400       39.95300
O        -19.40600       31.28500       39.26600
C        -22.24900       30.80500       40.72900
N        -19.25900       29.74000       40.90000
C        -17.84600       29.98600       41.17700
C        -17.01500       29.59800       39.96300
O        -16.25300       30.40700       39.43300
C        -17.38000       29.17100       42.39200
C        -15.88500       28.97100       42.46200
C        -14.92700       29.94500       42.46100
C        -15.18600       27.72200       42.53400
N        -13.67400       29.38000       42.52600
C        -13.80100       28.01800       42.56700
C        -15.58700       26.38000       42.56500
C        -12.82000       27.02100       42.64400
C        -14.61100       25.38800       42.64100
C        -13.24500       25.71600       42.67100
N        -17.16300       28.35000       39.53200
C        -16.43000       27.84600       38.37900
C        -16.68300       28.72300       37.16200
O        -15.78500       28.95200       36.35400
C        -16.83500       26.39500       38.09100
C        -16.32800       25.36000       39.10900
C        -16.99900       24.01600       38.85800
C        -14.81300       25.23300       39.00900
N        -17.90700       29.22300       37.04400
C        -18.27200       30.08900       35.93200
C        -17.43400       31.36000       35.95600
O        -16.91300       31.78600       34.92600
C        -19.75100       30.45700       36.01600
O        -19.97700       31.72100       35.43400
N        -17.30800       31.95400       37.13900
C        -16.53200       33.17800       37.30100
C        -15.04400       32.94000       37.10300
O        -14.33400       33.82900       36.63700
C        -16.77500       33.79200       38.67800
C        -18.18000       34.32900       38.85400
C        -18.40500       34.95100       40.21600
O        -17.97200       36.07100       40.48700
N        -19.08200       34.21600       41.08700
N        -14.56700       31.75000       37.46500
C        -13.15400       31.42300       37.29200
C        -12.82800       31.47300       35.80200
O        -11.80600       32.02400       35.39400
C        -12.84200       30.01800       37.82300
C        -12.86200       29.87100       39.34500
C        -11.65500       30.50400       40.02400
O        -10.73400       30.95200       39.31200
O        -11.62000       30.54000       41.27100
N        -13.71400       30.89300       34.99700
C        -13.53100       30.85600       33.55100
C        -13.69600       32.23200       32.91000
O        -12.89600       32.62500       32.06300
C        -14.51300       29.86300       32.91800
C        -14.38000       28.39400       33.33300
C        -15.44000       27.56400       32.62200
C        -12.99100       27.87700       32.99500
N        -14.73300       32.95900       33.31000
C        -14.98500       34.29300       32.77500
C        -13.83400       35.23900       33.10400
O        -13.51600       36.14600       32.33100
C        -16.27700       34.85800       33.35900
C        -17.58100       34.18400       32.92500
C        -18.72900       34.70300       33.77000
C        -17.82500       34.46600       31.45400
N        -13.21700       35.01800       34.25800
C        -12.11000       35.84700       34.71800
C        -10.82300       35.54500       33.95800
O        -10.11000       36.45900       33.54500
C        -11.87000       35.61900       36.21500
C        -10.94600       36.62100       36.84100
N        -11.27600       37.95000       36.97800
C         -9.70300       36.48800       37.35600
C        -10.27900       38.59600       37.54800
N         -9.30500       37.72600       37.79000
N        -10.53900       34.25900       33.77900
C         -9.33100       33.81300       33.09700
C         -9.36800       33.97300       31.57800
O         -8.36200       34.32800       30.96300
C         -9.01800       32.31800       33.42200
O         -8.75000       32.17700       34.82100
C         -7.80800       31.83000       32.62600
N        -10.52300       33.71400       30.97300
C        -10.66200       33.81500       29.52300
C        -11.67600       34.89400       29.13700
O        -12.49200       34.70000       28.23600
C        -11.10200       32.46100       28.94800
C        -10.22700       31.30200       29.36400
C         -8.98000       31.10300       28.77900
C        -10.65500       30.40800       30.34300
C         -8.17100       30.02800       29.16100
C         -9.85600       29.33300       30.73200
C         -8.61200       29.14200       30.14000
N        -11.60800       36.03400       29.81800
C        -12.52200       37.14700       29.57400
C        -12.59300       37.60500       28.11900
O        -13.57900       38.21300       27.70200
C        -12.13100       38.33800       30.45100
O        -10.85800       38.84200       30.08500
N        -11.55200       37.31100       27.34700
C        -11.51100       37.72200       25.94800
C        -11.71300       36.61100       24.92100
O        -11.94400       36.89100       23.74600
C        -10.19100       38.44800       25.66900
C        -10.13300       39.83900       26.28100
C         -8.75000       40.46300       26.23500
O         -8.14800       40.52600       25.14200
O         -8.26900       40.89700       27.30300
N        -11.63400       35.35700       25.35200
C        -11.80800       34.24200       24.42800
C        -13.15900       33.55200       24.61000
O        -13.47200       32.58800       23.91300
C        -10.68900       33.21100       24.61500
C         -9.28000       33.77800       24.61500
C         -8.92000       34.43000       25.95400
O         -8.80100       33.69000       26.96400
O         -8.76500       35.67500       25.99300
N        -13.96100       34.05100       25.54400
C        -15.26300       33.45100       25.81700
C        -16.44400       34.26300       25.30800
O        -16.53100       35.47100       25.53700
C        -15.45100       33.20600       27.34000
C        -14.66900       31.96000       27.76300
C        -16.93400       33.06900       27.68100
C        -14.68500       31.70100       29.25500
N        -17.35000       33.58700       24.61100
C        -18.54700       34.22800       24.09000
C        -19.50300       34.33300       25.26700
O        -20.11000       35.37600       25.50100
C        -19.18600       33.37000       22.99900
C        -20.27600       34.09000       22.22100
C        -21.06100       33.16000       21.32000
O        -20.44200       32.27900       20.69100
O        -22.29800       33.31800       21.23400
N        -19.61800       33.23600       26.01200
C        -20.48600       33.19300       27.17700
C        -20.32700       31.90000       27.96500
O        -19.87500       30.88300       27.43700
C        -21.95000       33.33400       26.75000
C        -22.52100       32.11000       26.05500
C        -22.84700       30.95900       26.77500
C        -22.73200       32.10000       24.67900
C        -23.36500       29.83300       26.14400
C        -23.25300       30.97600       24.03700
C        -23.56800       29.84600       24.77400
O        -24.08900       28.73800       24.14400
N        -20.69900       31.96600       29.23700
C        -20.68800       30.81500       30.12500
C        -22.14200       30.75000       30.56800
O        -22.69100       31.74200       31.05300
C        -19.78700       31.02400       31.35900
C        -20.03700       29.92200       32.37300
C        -18.32800       31.01400       30.94000
N        -22.77900       29.60200       30.37600
C        -24.18000       29.46700       30.74600
C        -24.38900       28.43600       31.83800
O        -23.82200       27.34400       31.79600
C        -25.01000       29.10600       29.51800
N        -25.20100       28.79800       32.82300
C        -25.51200       27.90600       33.92900
C        -26.90100       27.31700       33.71800
O        -27.88500       28.04900       33.57900
C        -25.45100       28.67100       35.25200
C        -24.04800       29.06000       35.72900
C        -24.13700       30.06100       36.86200
C        -23.30600       27.81300       36.17200
N        -26.97100       25.99000       33.68200
C        -28.23500       25.29500       33.47600
C        -28.71900       24.52700       34.69800
O        -28.17100       23.47600       35.03200
C        -28.11900       24.28700       32.32800
C        -27.92500       24.90500       30.98300
N        -26.74700       25.51400       30.60100
C        -28.74600       24.97400       29.90600
C        -26.85100       25.92300       29.35100
N        -28.05400       25.60900       28.90600
N        -29.74100       25.04300       35.39800
C        -30.19900       24.27500       36.55800
C        -30.74700       22.95200       36.01100
O        -31.55000       22.95400       35.07600
C        -31.28500       25.17100       37.16100
C        -31.76100       25.98900       35.98500
C        -30.47600       26.31000       35.27300
N        -30.30900       21.82900       36.57600
C        -30.74700       20.52800       36.07700
C        -31.34900       19.58700       37.11600
O        -31.65800       19.98900       38.23500
C        -29.58000       19.82200       35.39400
C        -30.00100       19.08900       34.13700
O        -31.04600       18.40600       34.15800
O        -29.27900       19.19800       33.12600
N        -31.50400       18.32400       36.72700
C        -32.08400       17.30800       37.59500
C        -31.06500       16.50700       38.41000
O        -29.85500       16.58500       38.19000
C        -32.95500       16.32300       36.78500
O        -32.15000       15.67200       35.79700
C        -34.10200       17.06100       36.09600
N        -31.59400       15.72700       39.34500
C        -30.79600       14.90800       40.23900
C        -29.41300       14.40400       39.86300
O        -29.20400       13.81400       38.80200
N        -28.47000       14.64500       40.77000
C        -27.09900       14.19400       40.60500
C        -26.29900       14.63100       39.39500
O        -25.13400       14.25100       39.27100
N        -26.88800       15.42700       38.51300
C        -26.16300       15.85800       37.32900
C        -25.26700       17.07600       37.52800
O        -25.65600       18.06900       38.14400
C        -27.12500       16.14000       36.16700
C        -26.39600       16.38600       34.84600
C        -27.29600       16.92700       33.73700
N        -26.56700       17.01300       32.46900
C        -27.06800       17.48600       31.33100
N        -28.31500       17.93200       31.28000
N        -26.32000       17.50600       30.23600
N        -24.05100       16.96700       37.00600
C        -23.06400       18.03800       37.03200
C        -22.16600       17.72800       35.84900
O        -21.31000       16.84700       35.92100
C        -22.22600       18.03000       38.30500
C        -21.23400       19.15400       38.35400
C        -21.64900       20.44600       38.66000
C        -19.90100       18.94200       38.01800
C        -20.75400       21.51300       38.62300
C        -18.99700       20.00400       37.97700
C        -19.42600       21.29300       38.28000
N        -22.36800       18.45500       34.76000
C        -21.61000       18.22600       33.54000
C        -21.28000       19.55800       32.87500
O        -22.11000       20.46500       32.84100
C        -22.45700       17.34600       32.61600
C        -21.79800       16.85300       31.34900
C        -22.62400       15.76200       30.69600
O        -23.86100       15.91700       30.63000
O        -22.04500       14.75100       30.25100
N        -20.06500       19.66700       32.35000
C        -19.63100       20.89400       31.69900
C        -19.23200       20.65800       30.24800
O        -18.56500       19.67300       29.92600
C        -18.44200       21.52600       32.44700
C        -18.84800       21.82200       33.89500
C        -18.00300       22.80400       31.74900
C        -17.72200       22.34800       34.75800
N        -19.64200       21.57700       29.37900
C        -19.34500       21.49100       27.95600
C        -18.64800       22.75200       27.45500
O        -18.92900       23.85800       27.91700
C        -20.63800       21.29600       27.16100
C        -21.33600       19.99400       27.43300
C        -20.94500       18.82800       26.78300
C        -22.39100       19.93300       28.33800
C        -21.60000       17.61900       27.02500
C        -23.05100       18.73100       28.58700
C        -22.65400       17.57200       27.93100
N        -17.74300       22.57700       26.49900
C        -17.02200       23.69300       25.90000
C        -17.08700       23.50300       24.39200
O        -16.57600       22.51800       23.86300
C        -15.56500       23.70300       26.36100
S        -14.60100       25.09400       25.72100
N        -17.71900       24.44700       23.70500
C        -17.87100       24.36500       22.25700
C        -18.41700       23.00300       21.84400
O        -17.97200       22.41800       20.85700
C        -16.53800       24.62800       21.54600
C        -16.03300       26.04400       21.75700
O        -16.81300       26.96400       21.99800
N        -14.72100       26.22700       21.64600
N        -19.38000       22.50100       22.61000
C        -19.98400       21.21700       22.29900
C        -19.24800       19.99900       22.82400
O        -19.79200       18.89200       22.81700
N        -18.01600       20.19000       23.28100
C        -17.22300       19.08200       23.80200
C        -17.32700       18.96500       25.32000
O        -17.07700       19.92800       26.04200
C        -15.73300       19.23200       23.42400
C        -14.94700       18.03100       23.93800
C        -15.58700       19.36400       21.91200
N        -17.70500       17.78000       25.79200
C        -17.83000       17.52500       27.22000
C        -16.43800       17.52200       27.83900
O        -15.59200       16.71300       27.46300
C        -18.47900       16.16600       27.46800
C        -18.75700       15.88800       28.92900
C        -18.91100       14.39800       29.22200
O        -17.97900       13.70200       29.37200
N        -20.08400       13.93500       29.28100
N        -16.19600       18.42700       28.78000
C        -14.89500       18.49100       29.43200
C        -14.98300       18.08300       30.89600
O        -13.99700       18.14900       31.62900
C        -14.27900       19.89000       29.30900
C        -15.21600       20.93700       29.90600
C        -13.99500       20.19200       27.85000
C        -14.60700       22.32200       29.98700
N        -16.17300       17.66100       31.31800
C        -16.37000       17.21500       32.69200
C        -17.71300       16.55400       32.94400
O        -18.76300       17.03700       32.51400
C        -16.19300       18.36700       33.67400
C        -16.01000       17.87300       35.07200
C        -16.98900       17.54900       35.97300
C        -14.76600       17.58100       35.71400
N        -16.42700       17.07000       37.13100
C        -15.06300       17.07800       36.99900
C        -13.42700       17.69100       35.32300
C        -14.06600       16.68700       37.90000
C        -12.43400       17.30100       36.21500
C        -12.75900       16.80700       37.49000
N        -17.65600       15.43800       33.66300
C        -18.82800       14.64800       34.02100
C        -18.57200       14.09000       35.41800
O        -17.63700       13.31900       35.62700
C        -19.02600       13.52900       32.99000
C        -20.11000       12.52200       33.32100
C        -21.09800       13.00800       34.34500
O        -21.66300       14.08400       34.10900
O        -21.31700       12.32500       35.37100
N        -19.41000       14.49700       36.37000
C        -19.26900       14.08800       37.76100
C        -19.00700       12.60900       38.00300
O        -18.02900       12.25500       38.64300
C        -20.49800       14.52900       38.55100
C        -20.36100       14.32000       40.04900
C        -21.62700       14.75300       40.75300
N        -22.74000       13.86600       40.42900
C        -22.87500       12.63800       40.91500
N        -21.96300       12.15200       41.74400
N        -23.91000       11.88700       40.56300
N        -19.88100       11.74500       37.51600
C        -19.70200       10.31200       37.72600
C        -18.39400        9.83200       37.11100
O        -17.58700        9.16500       37.76600
C        -20.86500        9.55200       37.11600
C        -22.20700       10.05500       37.57900
C        -23.33100        9.35300       36.86900
C        -24.66000        9.96000       37.33800
N        -25.84400        9.18200       36.79700
N        -18.19400       10.20100       35.85000
C        -17.01100        9.84400       35.08900
C        -15.74200       10.21800       35.86400
O        -14.84400        9.39200       36.04500
C        -17.06400       10.58100       33.75300
C        -15.96300       10.23600       32.78200
C        -16.11800       10.96300       31.46500
O        -16.09900       12.20500       31.40200
N        -16.25800       10.19200       30.39600
N        -15.68300       11.46200       36.33100
C        -14.52900       11.96700       37.07500
C        -14.58000       11.59900       38.56300
O        -13.57200       11.70300       39.28100
C        -14.45500       13.48600       36.96600
C        -14.30100       14.05300       35.56000
C        -13.03000       13.59600       34.86100
O        -12.09500       13.10400       35.53600
O        -12.96800       13.73100       33.62200
N        -15.75200       11.19100       39.03500
C        -15.88400       10.82800       40.43500
C        -15.75700       12.01800       41.35300
O        -15.15600       11.90100       42.41500
N        -16.33400       13.15300       40.95800
C        -16.24100       14.34000       41.78100
C        -16.34800       15.64400       41.00900
O        -16.87800       15.69300       39.90600
N        -15.82900       16.71400       41.61300
C        -15.86100       18.02400       40.99700
C        -14.45200       18.51800       40.66800
O        -13.49600       18.23300       41.39500
C        -16.59000       19.01500       41.92000
C        -17.97700       18.55900       42.26600
C        -18.18900       17.59600       43.25500
C        -19.07400       19.05300       41.57500
C        -19.47600       17.14200       43.54400
C        -20.36300       18.60700       41.85500
C        -20.56400       17.64400       42.84100
N        -14.32200       19.25700       39.57300
C        -13.05900       19.80200       39.07500
C        -12.42900       20.92800       39.87700
O        -13.15400       21.75300       40.47700
C        -13.37800       20.22100       37.66800
C        -14.76100       20.76500       37.84400
C        -15.42700       19.70600       38.70000
N        -11.12200       20.95600       39.83700
C        -10.38200       22.01500       40.51700
C        -10.33800       23.13200       39.52100
O        -10.49700       22.90700       38.31000
C         -9.01800       21.51600       40.86600
C         -9.20400       20.23100       41.52600
C         -7.96800       19.71600       42.18900
O         -6.95100       19.40900       41.51900
O         -8.04900       19.62900       43.43200
N        -10.16500       24.33800       40.01500
C        -10.15400       25.50300       39.14900
C         -9.07900       25.33900       38.05700
O         -9.34000       25.64300       36.90500
C         -9.89200       26.75300       39.95200
N         -7.90200       24.85300       38.45100
C         -6.80100       24.68100       37.50800
C         -7.08900       23.67300       36.41300
O         -6.83100       23.93600       35.23800
C         -5.53400       24.26200       38.26900
C         -4.29100       24.14800       37.38600
C         -3.04100       23.85700       38.21300
C         -3.22500       22.62700       39.09200
N         -2.04600       22.38600       39.96800
N         -7.61700       22.51000       36.78500
C         -7.92200       21.46700       35.81000
C         -8.94600       21.92600       34.78100
O         -8.78700       21.67700       33.58600
C         -8.45800       20.17500       36.49000
C         -8.91300       19.16800       35.43600
C         -7.37300       19.56600       37.36100
N         -9.99100       22.60600       35.23600
C        -11.02500       23.07400       34.32400
C        -10.48600       24.12800       33.35800
O        -10.81100       24.11200       32.17000
C        -12.21200       23.64100       35.10100
C        -13.47100       23.91600       34.27500
C        -14.00600       22.60600       33.71500
C        -14.51800       24.59900       35.14300
N         -9.67100       25.04200       33.87100
C         -9.08000       26.08200       33.04100
C         -8.25600       25.44400       31.95000
O         -8.29900       25.84700       30.78800
C         -8.16000       26.96900       33.86200
C         -8.86100       27.84200       34.85500
C         -7.85600       28.70300       35.58700
C         -8.52600       29.51800       36.67300
N         -7.53100       30.22400       37.52000
N         -7.49100       24.44200       32.34000
C         -6.65100       23.77100       31.38700
C         -7.40900       23.03500       30.29700
O         -7.02100       23.08900       29.13100
C         -5.73200       22.80600       32.08600
C         -5.40800       21.71500       31.16900
C         -5.04400       20.46900       31.87500
O         -4.39000       20.52400       32.91500
N         -5.44400       19.31900       31.32100
N         -8.48100       22.34000       30.67000
C         -9.26800       21.60300       29.68400
C         -9.94800       22.55800       28.71300
O        -10.15900       22.22400       27.55100
C        -10.31200       20.71300       30.36700
C         -9.70700       19.55500       31.15100
C        -10.76100       18.54400       31.58800
N        -10.17300       17.48800       32.40700
C        -10.79400       16.36500       32.75100
N        -12.03700       16.13800       32.34700
N        -10.17200       15.46800       33.50700
N        -10.28900       23.75000       29.19600
C        -10.92400       24.75300       28.35100
C         -9.86800       25.34900       27.42500
O        -10.11400       25.56500       26.23800
C        -11.54900       25.88900       29.18800
C        -11.87000       27.08000       28.30100
C        -12.81400       25.40100       29.86800
N         -8.69100       25.60600       27.98300
C         -7.58600       26.18200       27.23200
C         -7.19800       25.30600       26.04100
O         -6.94100       25.81200       24.94700
C         -6.38100       26.38900       28.15600
C         -5.21100       27.10400       27.50600
C         -4.11100       27.44700       28.50700
N         -4.49600       28.51100       29.43300
C         -4.76700       28.33100       30.72300
N         -4.69800       27.12000       31.25900
N         -5.10600       29.36600       31.47900
N         -7.16800       23.99300       26.24600
C         -6.80900       23.06700       25.17200
C         -7.82500       23.03300       24.03600
O         -7.53300       22.52700       22.95100
C         -6.63400       21.64100       25.70800
C         -5.48600       21.51700       26.69000
O         -4.50800       22.28100       26.56100
O         -5.55100       20.64300       27.58200
N         -9.02100       23.55200       24.29200
C        -10.06300       23.57300       23.27400
C        -10.16600       24.94400       22.60900
O        -10.81500       25.07900       21.56900
C        -11.42100       23.14400       23.86300
C        -11.64300       21.64900       24.15800
C        -12.93000       21.46000       24.96100
C        -11.73000       20.88100       22.84500
N         -9.50300       25.94100       23.20500
C         -9.47200       27.32100       22.69200
C         -8.19600       27.56200       21.85800
O         -7.90200       28.68400       21.43900
C         -9.51600       28.35800       23.86700
C        -10.78200       28.16300       24.69600
C         -9.48700       29.78100       23.34000
C        -10.94000       29.18500       25.82300
N         -7.43200       26.49800       21.63200
C         -6.19500       26.57400       20.85000
C         -5.44500       25.24600       20.88400
O         -4.29500       25.21900       21.36600
C         -5.28300       27.70300       21.36400
C         -5.05800       27.64400       22.86300
O         -4.45400       26.66300       23.34100
O         -5.48400       28.58700       23.56300
N        -19.87100       28.90700       71.23800
C        -21.10100       28.32500       70.62800
C        -21.04400       28.49500       69.11600
O        -20.85300       27.52700       68.38000
C        -22.34000       29.02200       71.18800
C        -23.59100       28.17200       71.08000
O        -23.51700       26.94500       71.00900
N        -24.74900       28.82100       71.09100
N        -21.21200       29.73200       68.65800
C        -21.16300       30.02400       67.23400
C        -19.72000       30.12500       66.75000
O        -18.90100       30.85200       67.31300
C        -21.93300       31.31100       66.92800
C        -23.44300       31.10900       66.92000
C        -24.20100       32.40400       66.69500
C        -25.67700       32.12800       66.45800
N        -26.24800       31.23400       67.50300
N        -19.43500       29.38100       65.69000
C        -18.11500       29.29300       65.08100
C        -17.57500       30.57000       64.44800
O        -18.31900       31.36100       63.86900
C        -18.11900       28.17600       64.04200
N        -16.26300       30.75200       64.56500
C        -15.57100       31.89700       63.98500
C        -14.59800       31.31700       62.97200
O        -13.65900       30.60500       63.33100
C        -14.81000       32.67300       65.05900
C        -15.67700       33.14000       66.21500
C        -14.94700       34.11600       67.11200
O        -13.73600       34.00200       67.30300
N        -15.68000       35.07300       67.67800
N        -14.83700       31.62100       61.70300
C        -14.00800       31.10600       60.62600
C        -13.21000       32.19600       59.91500
O        -13.74700       33.24900       59.56900
C        -14.89000       30.35300       59.61900
C        -15.52200       29.14200       60.31700
C        -14.07000       29.91900       58.41900
C        -16.70000       28.54900       59.58300
N        -11.92300       31.93200       59.71300
C        -11.02800       32.87600       59.05400
C        -10.41100       32.22200       57.81500
O         -9.92400       31.09000       57.87900
C         -9.89400       33.28500       60.00100
C        -10.28200       33.44600       61.46700
C        -11.02400       34.73100       61.75200
O        -11.03300       35.62300       60.87800
O        -11.58800       34.85700       62.85800
N        -10.43100       32.93600       56.69400
C         -9.85600       32.42900       55.45600
C         -8.79700       33.39200       54.93400
O         -9.11300       34.51900       54.54400
C        -10.92400       32.25600       54.35000
C        -11.95000       31.20100       54.77100
C        -10.25400       31.83700       53.04800
C        -13.16700       31.13500       53.86200
N         -7.54200       32.95500       54.93700
C         -6.44400       33.78100       54.44600
C         -6.04800       33.32300       53.05100
O         -5.71700       32.15400       52.84300
C         -5.23100       33.68300       55.38000
C         -5.49100       34.19300       56.77800
C         -6.16500       33.40800       57.71300
C         -5.07300       35.46600       57.16200
C         -6.41700       33.87700       59.00000
C         -5.32000       35.94600       58.44500
C         -5.99200       35.14600       59.35700
O         -6.24000       35.61800       60.62700
N         -6.09100       34.24000       52.09200
C         -5.73400       33.90500       50.71900
C         -4.77100       34.91600       50.12300
O         -4.86600       36.11500       50.39200
C         -6.98800       33.83900       49.84300
C         -7.68200       35.17000       49.68300
C         -8.57300       35.63400       50.64500
C         -7.42800       35.98000       48.57600
C         -9.19500       36.87100       50.51100
C         -8.04300       37.21700       48.43400
C         -8.92500       37.65700       49.40200
O         -9.53600       38.87700       49.26200
N         -3.84800       34.42400       49.30700
C         -2.87100       35.28700       48.65800
C         -3.58300       36.32800       47.80000
O         -4.26100       36.00300       46.82800
C         -1.90700       34.44400       47.81300
S         -1.08400       35.34300       46.46400
N         -3.41800       37.58500       48.18900
C         -4.02900       38.73500       47.52700
C         -3.84400       38.86100       46.01100
O         -4.76100       39.28200       45.30500
C         -3.50700       40.00600       48.19300
C         -3.98300       41.30300       47.57600
C         -3.19900       42.49200       48.12600
N         -3.23100       42.55500       49.58500
C         -2.40500       41.88700       50.38500
N         -1.47100       41.10000       49.86800
N         -2.51900       41.99900       51.70100
N         -2.66400       38.50600       45.51800
C         -2.36200       38.62700       44.09300
C         -2.36700       37.32400       43.29700
O         -2.04900       37.32500       42.11000
C         -1.00600       39.30200       43.93200
C          0.05200       38.66400       44.80500
C          1.24000       39.57400       45.04100
O          1.08400       40.72300       45.46500
N          2.43900       39.05800       44.79000
N         -2.71800       36.21500       43.93500
C         -2.74800       34.93300       43.23800
C         -4.10400       34.67600       42.60100
O         -4.34100       33.59500       42.06700
C         -2.45000       33.79100       44.20100
S         -0.85000       33.89400       45.05400
N         -4.99200       35.66000       42.67100
C         -6.32500       35.51900       42.10700
C         -7.03400       34.36400       42.81100
O         -7.57600       33.46800       42.16200
C         -6.23600       35.22500       40.60400
C         -7.59700       35.10400       39.95400
O         -7.72200       34.62100       38.82400
N         -8.62900       35.55700       40.66000
N         -7.01500       34.38100       44.14000
C         -7.65200       33.33200       44.92200
C         -8.86100       33.83700       45.71000
O         -9.46000       33.08800       46.48200
C         -6.64300       32.68700       45.88400
C         -5.59700       31.83400       45.20900
C         -5.61400       31.37200       43.92500
C         -4.40500       31.30500       45.81100
N         -4.51100       30.58300       43.68800
C         -3.75700       30.51600       44.82800
C         -3.83200       31.39900       47.08500
C         -2.55000       29.85300       45.07700
C         -2.62900       30.73300       47.33400
C         -2.01100       29.96000       46.33600
N         -9.22100       35.10200       45.51700
C        -10.37000       35.66600       46.21600
C        -11.64500       34.93800       45.80400
O        -12.48400       34.60300       46.64000
C        -10.52900       37.15000       45.88800
C        -11.77200       37.77200       46.51100
Se       -12.31200       39.41700       45.67900
C        -13.36600       38.67500       44.24500
N        -11.78200       34.71500       44.50300
C        -12.94100       34.03700       43.94200
C        -13.25200       32.73700       44.68000
O        -14.34500       32.56600       45.21600
C        -12.69100       33.74500       42.46000
C        -13.54900       34.45900       41.41100
C        -13.90700       35.86400       41.87200
C        -12.78400       34.49900       40.09100
N        -12.28300       31.82900       44.71200
C        -12.47100       30.54300       45.37000
C        -12.65000       30.68800       46.88000
O        -13.26900       29.83900       47.52200
C        -11.29500       29.61000       45.05600
C         -9.97400       29.98300       45.70500
C         -8.84500       29.12800       45.15000
N         -8.57100       29.44600       43.75200
C         -7.80700       28.71400       42.94700
N         -7.23100       27.60900       43.39900
N         -7.62600       29.08400       41.68600
N        -12.11600       31.76600       47.44500
C        -12.24500       32.00500       48.87600
C        -13.66700       32.45700       49.19400
O        -14.27200       32.00200       50.16500
C        -11.24900       33.07100       49.33400
O         -9.91400       32.63900       49.14100
N        -14.19300       33.35500       48.36600
C        -15.54400       33.86700       48.54300
C        -16.54600       32.73200       48.36600
O        -17.58400       32.70000       49.02300
C        -15.82100       34.97500       47.53800
N        -16.23100       31.80800       47.46400
C        -17.09500       30.66200       47.20800
C        -17.15300       29.77700       48.44800
O        -18.23000       29.48900       48.97000
C        -16.56800       29.84900       46.02100
C        -17.07300       28.43300       45.98100
C        -18.37400       28.02900       45.96900
C        -16.28100       27.23400       45.96200
N        -18.44700       26.65700       45.94900
C        -17.17900       26.14400       45.94900
C        -14.90300       26.97700       45.96900
C        -16.74200       24.81100       45.92400
C        -14.47000       25.65000       45.94600
C        -15.38800       24.58800       45.93100
N        -15.98500       29.34200       48.90700
C        -15.90000       28.49300       50.08300
C        -16.58700       29.15600       51.27000
O        -17.23000       28.48700       52.07900
C        -14.43500       28.19800       50.41200
C        -13.73900       27.26000       49.42000
C        -12.24200       27.23700       49.69000
C        -14.33000       25.86600       49.54400
N        -16.45600       30.47400       51.36100
C        -17.07500       31.23000       52.43800
C        -18.59100       31.06700       52.39200
O        -19.22700       30.83400       53.41800
C        -16.72500       32.71400       52.31400
O        -17.79300       33.51800       52.76900
N        -19.15600       31.18500       51.19300
C        -20.59400       31.04900       51.00600
C        -21.07000       29.62100       51.24100
O        -22.18300       29.40900       51.71900
C        -21.00200       31.51400       49.60500
C        -20.88900       33.01800       49.40700
C        -21.27000       33.46200       48.00800
O        -22.44800       33.65500       47.69800
N        -20.27000       33.62100       47.15200
N        -20.23500       28.64300       50.90400
C        -20.59600       27.24700       51.11600
C        -20.81900       27.02100       52.60800
O        -21.78100       26.36900       53.01700
C        -19.48400       26.31600       50.62300
C        -19.34400       26.22300       49.10600
C        -20.48400       25.46000       48.44300
O        -21.25400       24.78700       49.16000
O        -20.60100       25.52300       47.20200
N        -19.92200       27.57900       53.41400
C        -19.99400       27.44500       54.86300
C        -21.15700       28.23300       55.45600
O        -21.89000       27.72300       56.30000
C        -18.68000       27.90300       55.50200
C        -17.42300       27.10900       55.13300
C        -16.22000       27.70100       55.85000
C        -17.60000       25.64800       55.51600
N        -21.32300       29.47500       55.01400
C        -22.40400       30.32600       55.50100
C        -23.76400       29.72400       55.16300
O        -24.73200       29.87500       55.91200
C        -22.29700       31.71900       54.87600
C        -21.13800       32.61300       55.32500
C        -21.03800       33.82300       54.41100
C        -21.36400       33.05000       56.76200
N        -23.82500       29.04000       54.02800
C        -25.05900       28.42100       53.56500
C        -25.39400       27.15400       54.35200
O        -26.54100       26.94600       54.75000
C        -24.94000       28.08100       52.07500
C        -26.24200       27.72500       51.42800
N        -27.27400       28.62400       51.28800
C        -26.67900       26.56000       50.89200
C        -28.29600       28.03000       50.69500
N        -27.96100       26.78000       50.44500
N        -24.38500       26.31900       54.57700
C        -24.56000       25.06000       55.29700
C        -24.70500       25.21200       56.81000
O        -25.47900       24.48900       57.43900
C        -23.37900       24.10100       55.02100
O        -23.34500       23.77200       53.62500
C        -23.51700       22.82300       55.84500
N        -23.95700       26.14500       57.39300
C        -24.00400       26.36800       58.83800
C        -24.50400       27.77400       59.16900
O        -23.96100       28.44200       60.04900
C        -22.60900       26.17400       59.43700
C        -21.97900       24.85400       59.09500
C        -22.40800       23.68100       59.70600
C        -20.96300       24.78200       58.14800
C        -21.83500       22.45300       59.37800
C        -20.38500       23.55800       57.81300
C        -20.82100       22.39200       58.43000
N        -25.54700       28.21000       58.46700
C        -26.11200       29.54100       58.67000
C        -26.51400       29.84600       60.11000
O        -26.60500       31.01000       60.49200
C        -27.32900       29.74300       57.75600
O        -28.38900       28.88200       58.13000
N        -26.75600       28.81200       60.90800
C        -27.16600       29.02100       62.29500
C        -26.10700       28.71100       63.34700
O        -26.27900       29.06200       64.51300
C        -28.43700       28.22100       62.58400
C        -29.67300       28.79600       61.91300
C        -30.86400       27.86200       61.97000
O        -31.21400       27.38200       63.07000
O        -31.45900       27.61300       60.90000
N        -25.01000       28.07400       62.94700
C        -23.95600       27.74700       63.90700
C        -22.72500       28.62300       63.72100
O        -21.74100       28.48400       64.44700
C        -23.54000       26.28100       63.78200
C        -24.68400       25.28700       63.80000
C        -25.42300       25.24500       62.47800
O        -24.82000       24.79400       61.47900
O        -26.60000       25.66200       62.43600
N        -22.78100       29.52700       62.75000
C        -21.65200       30.40600       62.47200
C        -21.84200       31.84100       62.94200
O        -22.87300       32.46100       62.67700
C        -21.32800       30.43300       60.95700
C        -20.59400       29.15200       60.56100
C        -20.49500       31.67000       60.61100
C        -20.37300       29.00900       59.07600
N        -20.84000       32.35800       63.64500
C        -20.87300       33.73200       64.12700
C        -20.50500       34.59500       62.93100
O        -21.15300       35.60200       62.65200
C        -19.83600       33.95000       65.23200
C        -19.97300       35.29100       65.94200
C        -18.81100       35.58700       66.87000
O        -18.34700       34.65300       67.55800
O        -18.36800       36.75400       66.92200
N        -19.46000       34.17700       62.22100
C        -18.99800       34.89200       61.04100
C        -17.91200       34.13200       60.29000
O        -17.22900       33.27300       60.85000
C        -18.45400       36.27100       61.43500
C        -17.11800       36.24200       62.15600
C        -15.93800       35.94400       61.47600
C        -17.03400       36.51200       63.52000
C        -14.71100       35.91500       62.13300
C        -15.80700       36.48700       64.18700
C        -14.65000       36.18700       63.48900
O        -13.44100       36.15100       64.14300
N        -17.77400       34.46200       59.01200
C        -16.74200       33.89800       58.15700
C        -16.01700       35.14500       57.68400
O        -16.64000       36.05300       57.13200
C        -17.31800       33.16400       56.93200
C        -16.20000       32.85100       55.94000
C        -18.00300       31.88200       57.37600
N        -14.71400       35.21000       57.92500
C        -13.95000       36.38100       57.52800
C        -12.91200       36.05700       56.46700
O        -12.20800       35.05100       56.55300
C        -13.27700       37.00400       58.74500
N        -12.83500       36.91900       55.46000
C        -11.87800       36.76000       54.37600
C        -10.71900       37.73000       54.58700
O        -10.92300       38.94100       54.72200
C        -12.54900       37.02200       53.02600
C        -13.52700       35.93800       52.55500
C        -14.38000       36.46600       51.42300
C        -12.74800       34.70900       52.12000
N         -9.50400       37.19300       54.62800
C         -8.31200       38.00700       54.83400
C         -7.39100       38.05700       53.62500
O         -6.69800       37.08200       53.33300
C         -7.48300       37.47100       56.00400
C         -8.14000       37.60800       57.33800
N         -9.18300       36.80300       57.74200
C         -7.87700       38.43500       58.37700
C         -9.53200       37.12700       58.97400
N         -8.75700       38.11300       59.38300
N         -7.37200       39.18300       52.89600
C         -6.45900       39.20300       51.75000
C         -5.04700       39.10800       52.32600
O         -4.69600       39.86800       53.22700
C         -6.74900       40.55500       51.09500
C         -7.27900       41.39300       52.23300
C         -8.16500       40.42400       52.96500
N         -4.24500       38.17500       51.82100
C         -2.89600       37.99000       52.34800
C         -1.76700       38.07800       51.32500
O         -1.96200       38.53000       50.19900
C         -2.80700       36.64400       53.06500
C         -1.97900       36.71300       54.33000
O         -0.86800       37.28100       54.29000
O         -2.44300       36.19500       55.36400
N         -0.58300       37.62700       51.73600
C          0.59900       37.65400       50.88400
C          0.86500       36.35800       50.12100
O          0.23400       35.32700       50.35700
C          1.86500       38.00000       51.69400
O          2.06700       37.01400       52.71400
C          1.72400       39.37100       52.33900
N          1.82900       36.44300       49.21100
C          2.21700       35.33300       48.36000
C          2.02600       33.88600       48.77400
O          2.43500       33.46500       49.85600
N          1.39900       33.12700       47.87900
C          1.17300       31.70900       48.09000
C          0.38200       31.23500       49.28900
O          0.15700       30.03300       49.43200
N         -0.05500       32.14800       50.14600
C         -0.80500       31.73400       51.32100
C         -2.29300       31.48700       51.09200
O         -2.97900       32.26900       50.43600
C         -0.64600       32.75100       52.45700
C         -1.19600       32.23500       53.78200
C         -1.30300       33.31000       54.85500
N         -1.74000       32.73100       56.12500
C         -1.96300       33.42300       57.23900
N         -1.79400       34.73800       57.25700
N         -2.35400       32.79700       58.34100
N         -2.76700       30.37300       51.63700
C         -4.17100       29.98700       51.58800
C         -4.33700       29.08100       52.79500
O         -3.95900       27.91100       52.76400
C         -4.52300       29.20400       50.32500
C         -5.97500       28.82300       50.25700
C         -6.93300       29.76600       49.90300
C         -6.39400       27.54700       50.62200
C         -8.29000       29.44900       49.91600
C         -7.75000       27.21800       50.63900
C         -8.70000       28.17300       50.28500
N         -4.90000       29.62900       53.86200
C         -5.06800       28.88500       55.09700
C         -6.42000       29.21000       55.72300
O         -6.86500       30.35800       55.69400
C         -3.91800       29.26300       56.03400
C         -3.81000       28.49000       57.32300
C         -2.48900       28.76600       58.01400
O         -2.07500       29.94300       58.04100
O         -1.86700       27.81700       58.52900
N         -7.07100       28.19700       56.28300
C         -8.37500       28.38600       56.89800
C         -8.38200       27.96600       58.36000
O         -7.82800       26.92800       58.72600
C         -9.45900       27.58800       56.14200
C         -9.51900       28.06000       54.68600
C        -10.81000       27.78400       56.80600
C        -10.49200       27.27900       53.81500
N         -9.01700       28.78500       59.19100
C         -9.10700       28.52700       60.62300
C        -10.55700       28.49800       61.09500
O        -11.40300       29.23000       60.58100
C         -8.35700       29.61800       61.39500
C         -6.87700       29.63400       61.14700
C         -6.02700       28.79700       61.86300
C         -6.32900       30.49700       60.20500
C         -4.65100       28.82100       61.64400
C         -4.95500       30.52800       59.97800
C         -4.11400       29.68900       60.70100
N        -10.83500       27.64400       62.07400
C        -12.16700       27.52900       62.65100
C        -11.99900       27.53400       64.16600
O        -11.37300       26.63800       64.73100
C        -12.84400       26.23000       62.20800
S        -14.50500       26.00100       62.88700
N        -12.55400       28.55100       64.81600
C        -12.44600       28.69300       66.26100
C        -10.99100       28.56600       66.70900
O        -10.68900       27.92000       67.71100
C        -13.30800       27.65000       66.98400
C        -14.79400       27.85400       66.74600
O        -15.25000       28.97800       66.52900
N        -15.55900       26.77200       66.80600
N        -10.09100       29.18300       65.95000
C         -8.68100       29.14300       66.29200
C         -7.92300       27.91600       65.81800
O         -6.69100       27.89500       65.86000
N         -8.64500       26.89600       65.36600
C         -8.01200       25.67000       64.89200
C         -7.82400       25.66200       63.37700
O         -8.77600       25.86500       62.62700
C         -8.84000       24.42600       65.28900
C         -8.14000       23.16000       64.81000
C         -9.03100       24.38800       66.79600
N         -6.58900       25.43500       62.93700
C         -6.28000       25.38700       61.51400
C         -6.90700       24.13500       60.91800
O         -6.58700       23.01900       61.33200
C         -4.77100       25.34000       61.29400
C         -4.37700       25.41700       59.83600
C         -2.98200       24.85900       59.57300
O         -2.78100       23.70300       59.54300
N         -2.04500       25.68700       59.40000
N         -7.80700       24.30900       59.95600
C         -8.44700       23.16300       59.33000
C         -8.00800       23.01100       57.87800
O         -8.48200       22.12500       57.16900
C         -9.97900       23.27000       59.40200
C        -10.45700       24.56300       58.74300
C        -10.41900       23.22400       60.85400
C        -11.96600       24.71400       58.71900
N         -7.09400       23.87300       57.44100
C         -6.58400       23.80000       56.08000
C         -5.36800       24.66600       55.81600
O         -5.31700       25.84100       56.19500
C         -7.66600       24.15400       55.06500
C         -7.29900       23.70900       53.68200
C         -6.55500       24.39500       52.76400
C         -7.60200       22.44400       53.08500
N         -6.37800       23.63500       51.63100
C         -7.01500       22.43200       51.80000
C         -8.32500       21.32100       53.50600
C         -7.11200       21.33100       50.94000
C         -8.42300       20.22600       52.65200
C         -7.82500       20.24300       51.38000
N         -4.40000       24.05500       55.14200
C         -3.15100       24.70600       54.78500
C         -2.75600       24.22400       53.41800
O         -2.44000       23.04900       53.24900
C         -2.05700       24.33200       55.75200
C         -1.01400       25.35700       55.73600
C         -0.78000       26.05900       54.43000
O         -1.43800       27.07000       54.34200
O         -0.01700       25.64000       53.50300
N         -2.73200       25.13300       52.45100
C         -2.40500       24.78300       51.07300
C         -1.20100       23.86800       50.87700
O         -1.32600       22.81400       50.26400
C         -2.21800       26.05500       50.25000
C         -2.03600       25.78800       48.76700
C         -1.85800       27.08800       48.02200
N         -0.56700       27.69200       48.32800
C          0.59200       27.25100       47.85300
N          0.62200       26.20400       47.03800
N          1.72400       27.85000       48.19800
N         -0.03500       24.27400       51.36400
C          1.15800       23.44700       51.19800
C          0.98400       22.08900       51.83900
O          1.23500       21.05400       51.22100
C          2.36100       24.13900       51.81200
C          2.51600       25.52700       51.29900
C          3.63600       26.23500       51.97700
C          3.70800       27.64100       51.45000
N          4.88400       28.34000       52.01500
N          0.54600       22.11700       53.08900
C          0.32300       20.91900       53.87700
C         -0.57100       19.93300       53.11500
O         -0.24600       18.75200       52.97700
C         -0.33300       21.32400       55.19600
C         -0.58500       20.20500       56.17400
C         -1.20000       20.71200       57.46400
O         -2.30400       21.27000       57.46200
N         -0.49500       20.51700       58.57300
N         -1.69700       20.43700       52.62000
C         -2.66000       19.62200       51.87900
C         -2.28700       19.45700       50.41100
O         -2.83000       18.58900       49.71900
C         -4.05800       20.23900       51.95300
C         -4.66600       20.41000       53.33600
C         -4.87700       19.10300       54.08800
O         -4.88500       18.02100       53.45500
O         -5.03200       19.17200       55.33100
N         -1.38500       20.30500       49.93100
C         -0.97400       20.21800       48.54400
C         -2.08300       20.60400       47.58800
O         -2.25000       19.96100       46.55300
N         -2.83700       21.64600       47.93500
C         -3.92500       22.07600       47.08300
C         -5.05000       22.78800       47.80400
O         -4.86900       23.32400       48.89600
N         -6.22400       22.79000       47.18000
C         -7.39300       23.44400       47.75400
C         -8.47300       22.43000       48.10900
O         -8.64600       21.42200       47.42800
C         -7.92700       24.50000       46.79200
C         -6.90300       25.53300       46.43000
C         -5.91700       25.25500       45.48900
C         -6.88600       26.76600       47.07100
C         -4.92400       26.18700       45.19700
C         -5.89900       27.70400       46.78800
C         -4.91700       27.41700       45.84700
N         -9.21800       22.69900       49.19300
C        -10.28500       21.83000       49.68700
C        -11.56700       21.75600       48.87400
O        -11.96600       22.73300       48.23400
C        -10.53800       22.39000       51.08200
C        -10.40500       23.84200       50.83400
C         -9.13900       23.92700       50.00300
N        -12.18900       20.59200       48.91800
C        -13.44800       20.39800       48.24700
C        -14.47200       20.91000       49.20800
O        -14.22000       20.96400       50.39700
C        -13.64700       18.93700       47.93900
C        -12.40500       18.45400       47.34300
C        -12.53600       17.11100       46.67400
O        -12.77300       16.09500       47.37700
O        -12.40000       17.09500       45.42700
N        -15.60700       21.32300       48.67400
C        -16.66300       21.83600       49.51000
C        -17.03300       20.84400       50.61000
O        -17.22700       21.22800       51.76300
C        -17.87700       22.16400       48.66300
N        -17.12700       19.56700       50.25800
C        -17.49600       18.53200       51.21800
C        -16.48500       18.35700       52.35500
O        -16.86300       18.30500       53.52700
C        -17.69200       17.18900       50.50100
C        -18.21400       16.07200       51.39500
C        -18.51200       14.81300       50.59200
C        -17.30800       14.38100       49.77200
N        -17.60300       13.18600       48.93700
N        -15.20500       18.26300       52.01100
C        -14.16000       18.09100       53.01400
C        -14.12200       19.25100       54.00600
O        -13.99400       19.04000       55.21200
C        -12.76500       17.95800       52.36300
C        -11.69300       17.88100       53.43500
C        -12.71700       16.71000       51.50400
N        -14.23200       20.47500       53.49900
C        -14.19600       21.64300       54.36400
C        -15.39400       21.67600       55.30900
O        -15.25100       22.00800       56.48600
C        -14.16000       22.92900       53.53600
C        -13.86800       24.21100       54.31800
C        -12.48600       24.11400       54.95100
C        -13.95000       25.41600       53.39400
N        -16.57100       21.34000       54.79100
C        -17.78000       21.32500       55.60700
C        -17.60600       20.34300       56.73900
O        -17.94700       20.61300       57.89200
C        -18.98100       20.88300       54.78200
C        -19.41000       21.86100       53.72100
C        -20.62400       21.33200       52.98200
C        -21.03900       22.26400       51.86000
N        -22.12600       21.67200       51.03900
N        -17.07100       19.18800       56.39400
C        -16.87700       18.16700       57.38200
C        -15.89200       18.53900       58.48200
O        -16.14600       18.27000       59.65300
C        -16.45600       16.88700       56.70800
C        -15.74400       16.02600       57.64500
C        -14.74100       15.18400       56.96800
O        -15.03700       14.59700       55.93400
N        -13.53600       15.10900       57.52600
N        -14.77600       19.16000       58.11200
C        -13.77900       19.56200       59.10000
C        -14.33500       20.64200       60.01800
O        -13.94400       20.74000       61.17900
C        -12.50600       20.06600       58.41800
C        -11.76000       18.98300       57.65600
C        -10.38100       19.44200       57.21400
N         -9.69200       18.38600       56.47300
C         -8.41300       18.43000       56.11700
N         -7.67300       19.48300       56.43300
N         -7.87300       17.42100       55.44800
N        -15.24900       21.45400       59.49300
C        -15.86800       22.51200       60.28400
C        -16.90100       21.87900       61.21100
O        -17.00900       22.24400       62.38100
C        -16.57700       23.55400       59.38700
C        -17.48300       24.43200       60.23200
C        -15.54900       24.41400       58.66500
N        -17.65400       20.92500       60.67500
C        -18.68700       20.23700       61.43400
C        -18.10600       19.51000       62.64900
O        -18.70600       19.51000       63.72500
C        -19.42600       19.24800       60.52600
C        -20.61100       18.56300       61.18400
C        -21.39000       17.68700       60.20800
N        -22.15100       18.46200       59.23000
C        -21.81900       18.60200       57.94900
N        -20.73000       18.01800       57.47000
N        -22.58600       19.32600       57.14500
N        -16.93400       18.90300       62.48400
C        -16.29500       18.18200       63.58600
C        -15.82200       19.08800       64.71400
O        -15.53500       18.61600       65.81900
C        -15.10500       17.36300       63.08800
C        -15.51100       16.26000       62.13500
O        -16.63900       15.74300       62.27400
O        -14.69700       15.89700       61.25800
N        -15.71200       20.38200       64.42600
C        -15.27300       21.34200       65.43000
C        -16.44500       22.05700       66.07500
O        -16.27600       22.74100       67.08800
C        -14.29200       22.36100       64.83800
C        -12.87100       21.86100       64.55800
C        -12.12200       22.88000       63.70600
C        -12.14000       21.66100       65.87400
N        -17.62600       21.90600       65.48600
C        -18.82800       22.49800       66.05700
C        -19.45700       21.40500       66.92000
O        -19.71000       21.58400       68.11600
C        -19.82000       22.92800       64.95000
C        -19.28200       24.16600       64.23500
C        -21.19400       23.17500       65.53100
C        -20.21900       24.70700       63.15700
N        -19.68000       20.25400       66.29600
C        -20.27500       19.11700       66.98400
C        -19.19400       18.20800       67.56200
O        -19.14500       17.02500       67.16600
C        -21.15700       18.31900       66.01900
C        -22.01200       19.21100       65.13900
O        -21.45100       19.87900       64.24300
O        -23.24100       19.25000       65.34900
N         -4.98100       48.83000       58.70700
C         -5.91400       48.09700       57.80300
C         -7.36000       48.26000       58.26400
O         -7.62300       48.47100       59.45100
C         -5.55600       46.60500       57.77300
C         -4.16200       46.26900       57.24800
C         -4.03300       46.54200       55.75600
C         -2.74700       45.94900       55.19000
N         -2.74900       44.45500       55.21100
N         -8.29300       48.16700       57.32300
C         -9.71500       48.28700       57.63400
C        -10.33700       46.94500       58.03400
O         -9.95800       45.88900       57.52700
C        -10.45200       48.86900       56.43700
N        -11.28300       47.00700       58.96300
C        -12.00400       45.83000       59.43400
C        -13.46400       46.08000       59.09200
O        -14.09000       46.97800       59.64900
C        -11.83400       45.66000       60.94600
C        -10.38800       45.63400       61.40800
C        -10.25400       45.21600       62.85600
O        -11.04800       45.62500       63.70400
N         -9.24000       44.39500       63.15200
N        -13.99200       45.28400       58.17100
C        -15.36400       45.44000       57.72200
C        -16.26600       44.28100       58.14200
O        -15.90800       43.11000       57.99300
C        -15.39000       45.60500       56.19400
C        -14.56600       46.84000       55.81700
C        -16.81600       45.72900       55.69700
C        -14.16300       46.90600       54.36600
N        -17.43400       44.61900       58.68300
C        -18.40000       43.62600       59.14400
C        -19.72200       43.81000       58.40200
O        -20.23500       44.92500       58.30200
C        -18.65000       43.79900       60.64700
C        -17.44100       44.21900       61.47700
C        -16.46900       43.08700       61.73700
O        -16.85000       41.91800       61.54400
O        -15.32400       43.37100       62.14900
N        -20.27500       42.71600       57.88800
C        -21.54700       42.76600       57.17500
C        -22.56100       41.83700       57.84300
O        -22.40200       40.61700       57.82000
C        -21.39100       42.33100       55.70000
C        -20.44100       43.28300       54.96900
C        -22.75300       42.31600       55.02600
C        -20.11300       42.85000       53.55100
N        -23.59300       42.41700       58.44900
C        -24.62800       41.63200       59.10900
C        -25.85400       41.54700       58.20800
O        -26.38800       42.57000       57.78000
C        -25.01500       42.26800       60.45100
C        -23.89100       42.32300       61.46000
C        -22.92200       43.32600       61.40600
C        -23.79100       41.36200       62.46500
C        -21.88000       43.36900       62.33100
C        -22.75400       41.39700       63.39000
C        -21.80200       42.40000       63.31800
O        -20.77100       42.42500       64.22800
N        -26.29600       40.32900       57.91400
C        -27.45500       40.14000       57.05000
C        -28.43000       39.12700       57.62700
O        -28.02300       38.14800       58.25400
C        -27.01100       39.66900       55.66400
C        -26.34900       38.31300       55.66900
C        -25.00000       38.17200       55.98800
C        -27.08100       37.16400       55.37700
C        -24.39500       36.91800       56.01500
C        -26.48700       35.90500       55.40200
C        -25.14400       35.78700       55.72200
O        -24.55100       34.54600       55.75300
N        -29.71900       39.36200       57.40900
C        -30.74800       38.45500       57.90100
C        -30.56700       37.07600       57.27000
O        -30.69600       36.90700       56.05900
C        -32.13500       39.01900       57.58800
S        -33.44200       37.77000       57.45300
N        -30.26100       36.10500       58.12300
C        -30.01800       34.71600       57.74500
C        -31.06400       34.03400       56.85600
O        -30.71300       33.27400       55.95500
C        -29.83000       33.89500       59.02700
C        -29.69200       32.40400       58.83600
C        -29.76800       31.67600       60.17600
N        -28.84500       32.22000       61.17300
C        -29.11300       33.25400       61.96800
N        -30.28800       33.86500       61.89300
N        -28.20300       33.68000       62.83400
N        -32.34000       34.30400       57.10900
C        -33.42100       33.67000       56.35900
C        -34.07700       34.53400       55.28700
O        -35.03200       34.10100       54.64400
C        -34.48800       33.19700       57.33600
C        -34.85000       34.26900       58.34400
C        -35.51000       33.71000       59.58500
O        -34.96200       32.82700       60.24800
N        -36.68300       34.23900       59.92100
N        -33.57900       35.75000       55.08900
C        -34.14900       36.63600       54.07200
C        -33.49300       36.43200       52.71700
O        -33.74700       37.19200       51.78300
C        -33.98100       38.09600       54.47500
S        -34.71700       38.55400       56.07800
N        -32.64400       35.41100       52.61400
C        -31.93900       35.12700       51.36700
C        -31.13500       36.37000       50.96900
O        -31.26200       36.87300       49.85200
C        -32.94000       34.77800       50.25800
C        -32.26200       34.45100       48.94500
O        -32.91700       34.43700       47.87100
N        -30.95100       34.17900       49.00200
N        -30.31800       36.86600       51.89300
C        -29.50300       38.04500       51.63100
C        -28.01200       37.74400       51.63000
O        -27.19300       38.64900       51.48000
C        -29.79700       39.14200       52.65800
C        -31.14200       39.77700       52.49700
C        -31.98500       39.66300       51.42500
C        -31.78300       40.67000       53.41600
N        -33.10800       40.42800       51.62200
C        -33.01300       41.05500       52.83700
C        -31.44100       41.17700       54.67600
C        -33.89900       41.93500       53.47200
C        -32.32500       42.05300       55.30900
C        -33.54100       42.41800       54.70500
N        -27.65400       36.47600       51.80600
C        -26.24600       36.08900       51.81300
C        -25.61000       36.40500       50.46400
O        -24.49100       36.91500       50.39400
C        -26.09100       34.59000       52.08800
C        -24.64000       34.12100       52.07400
Se       -24.43600       32.23200       51.75600
C        -24.65300       32.24200       49.84300
N        -26.33300       36.08500       49.39800
C        -25.86500       36.32000       48.03800
C        -25.36500       37.75100       47.84000
O        -24.20300       37.96400       47.49500
C        -26.99400       36.00700       47.05100
C        -26.84200       34.81100       46.10700
C        -26.13200       33.65600       46.79800
C        -28.22700       34.39100       45.62100
N        -26.23800       38.72500       48.07400
C        -25.86900       40.12400       47.90800
C        -24.78700       40.56100       48.89400
O        -24.02300       41.48600       48.61900
C        -27.10600       41.01700       48.04900
C        -27.67200       41.11100       49.45600
C        -29.02000       41.80400       49.43300
N        -30.01500       40.99400       48.74100
C        -31.18300       41.45100       48.30500
N        -31.51000       42.72200       48.48300
N        -32.03100       40.63400       47.69800
N        -24.72100       39.89100       50.04000
C        -23.71800       40.21400       51.04600
C        -22.34900       39.73800       50.57100
O        -21.35700       40.45800       50.68200
C        -24.05700       39.54900       52.38300
O        -25.28200       40.03300       52.90600
N        -22.30500       38.52000       50.04000
C        -21.06100       37.94700       49.54700
C        -20.55100       38.76600       48.37200
O        -19.34300       38.94200       48.20300
C        -21.27600       36.50400       49.12500
N        -21.47500       39.26400       47.55700
C        -21.11000       40.08200       46.40700
C        -20.45500       41.37600       46.88100
O        -19.34000       41.70400       46.47400
C        -22.34900       40.40200       45.57600
C        -22.16300       41.58400       44.68800
C        -21.21600       41.74000       43.71900
C        -22.93500       42.78800       44.69700
N        -21.35000       42.96800       43.12200
C        -22.39700       43.63400       43.70300
C        -24.02900       43.23600       45.44700
C        -22.92100       44.90600       43.43800
C        -24.54800       44.49600       45.18400
C        -23.99200       45.31800       44.18800
N        -21.15500       42.10700       47.74100
C        -20.63000       43.35700       48.27700
C        -19.28000       43.12200       48.94400
O        -18.38300       43.96000       48.86100
C        -21.61600       43.94600       49.28500
C        -22.89100       44.49000       48.64200
C        -23.89800       44.87300       49.70900
C        -22.53000       45.68300       47.77100
N        -19.14300       41.97500       49.60200
C        -17.89700       41.62400       50.27100
C        -16.75800       41.56100       49.26300
O        -15.67600       42.09800       49.50400
C        -18.02700       40.26500       50.96900
O        -16.75200       39.69400       51.21600
N        -17.01000       40.90500       48.13400
C        -16.00200       40.76700       47.09300
C        -15.71400       42.09100       46.39600
O        -14.58800       42.33000       45.96900
C        -16.42200       39.69900       46.07400
C        -16.45300       38.28300       46.63900
C        -16.91500       37.25300       45.62000
O        -16.14200       36.79700       44.77500
N        -18.18900       36.89100       45.69300
N        -16.72300       42.94900       46.28300
C        -16.52500       44.25100       45.65500
C        -15.49200       45.03200       46.46500
O        -14.60700       45.67800       45.90700
C        -17.83700       45.03100       45.61800
C        -18.85800       44.52000       44.60600
C        -18.40000       44.69400       43.16400
O        -17.40500       45.40900       42.93700
O        -19.04400       44.12500       42.25500
N        -15.61400       44.95300       47.78800
C        -14.70100       45.63900       48.69400
C        -13.31700       44.99400       48.71600
O        -12.30000       45.68800       48.67200
C        -15.27500       45.66400       50.11100
C        -16.63400       46.35000       50.27900
C        -17.07200       46.25700       51.73100
C        -16.53100       47.80100       49.83300
N        -13.28200       43.66800       48.79300
C        -12.02200       42.93400       48.81700
C        -11.23600       43.15300       47.52600
O        -10.00400       43.17500       47.53300
C        -12.28200       41.43600       49.01200
C        -12.81800       40.96600       50.37100
C        -13.26700       39.52000       50.25800
C        -11.74000       41.09300       51.43300
N        -11.95700       43.32500       46.42400
C        -11.33700       43.53200       45.12100
C        -10.79700       44.95300       44.96700
O         -9.68700       45.15200       44.47200
C        -12.35500       43.24900       44.01300
C        -11.75800       43.19900       42.64300
N        -10.95900       42.16000       42.21500
C        -11.83400       44.06500       41.60400
C        -10.57100       42.38700       40.97400
N        -11.08800       43.53700       40.57900
N        -11.58200       45.93400       45.40100
C        -11.19200       47.33500       45.29400
C        -10.14200       47.78400       46.31400
O         -9.26400       48.58600       45.99500
C        -12.42400       48.25200       45.42500
O        -13.30700       48.01700       44.32100
C        -12.00500       49.72000       45.43900
N        -10.22900       47.26400       47.53400
C         -9.28800       47.62900       48.59300
C         -8.49500       46.42000       49.07200
O         -8.28400       46.23900       50.27300
C        -10.04000       48.23100       49.77700
C        -10.93400       49.37700       49.40700
C        -10.40200       50.62700       49.10400
C        -12.31100       49.19500       49.31900
C        -11.22800       51.68100       48.71700
C        -13.14800       50.24200       48.93300
C        -12.60400       51.48800       48.63000
N         -8.05300       45.59900       48.12700
C         -7.30100       44.39100       48.44300
C         -6.07100       44.62900       49.31200
O         -5.60200       43.71000       49.97900
C         -6.87300       43.68900       47.15400
O         -5.94100       44.47000       46.42400
N         -5.55200       45.85300       49.30900
C         -4.36400       46.15700       50.09800
C         -4.59700       46.99700       51.35100
O         -3.70500       47.11500       52.19300
C         -3.30800       46.82600       49.21000
C         -2.67600       45.87000       48.20900
C         -1.82200       46.56900       47.17100
O         -0.95800       47.38800       47.54900
O         -2.01700       46.29100       45.96800
N         -5.78700       47.57300       51.48900
C         -6.07900       48.38900       52.66300
C         -7.03000       47.68200       53.62800
O         -7.37000       48.22600       54.68000
C         -6.69300       49.72900       52.25100
C         -5.93700       50.45800       51.15200
C         -6.16300       49.83500       49.78700
O         -7.30900       49.90100       49.29200
O         -5.19900       49.28200       49.21200
N         -7.44600       46.46900       53.27700
C         -8.36800       45.71800       54.11500
C         -7.72000       44.57600       54.88500
O         -6.97200       43.77400       54.32100
C         -9.53100       45.14300       53.28300
C        -10.53800       46.24800       52.97300
C        -10.18700       43.98500       54.02400
C        -11.62600       45.82600       52.01100
N         -8.02000       44.50900       56.17800
C         -7.50300       43.44800       57.03100
C         -8.38900       42.24100       56.75900
O         -7.90400       41.12700       56.56900
C         -7.61600       43.83700       58.51100
C         -6.85500       42.91200       59.45400
C         -7.16400       43.18300       60.92000
O         -7.24100       44.36900       61.31200
O         -7.32900       42.20500       61.68000
N         -9.69600       42.48700       56.74700
C        -10.66700       41.43700       56.50600
C        -12.08400       41.98100       56.34900
O        -12.40200       43.07800       56.81400
C        -10.64900       40.43000       57.66400
C        -11.26200       40.93500       58.96500
C        -12.64400       41.07700       59.10300
C        -10.46100       41.28000       60.05600
C        -13.21400       41.54800       60.28800
C        -11.02400       41.75200       61.24500
C        -12.39800       41.88300       61.35200
O        -12.95200       42.34200       62.52400
N        -12.91900       41.19800       55.67300
C        -14.32400       41.51500       55.48700
C        -15.00200       40.30100       56.10100
O        -14.72700       39.16800       55.70600
C        -14.70900       41.61800       54.00200
C        -16.22600       41.72200       53.87300
C        -14.04300       42.83000       53.37300
N        -15.87000       40.52900       57.07800
C        -16.54700       39.42500       57.73900
C        -18.04600       39.43300       57.50100
O        -18.69900       40.47100       57.60500
C        -16.24900       39.46000       59.23800
N        -18.58000       38.26500       57.16800
C        -20.00700       38.11100       56.92500
C        -20.65100       37.46900       58.14700
O        -20.26400       36.37500       58.56200
C        -20.23500       37.23900       55.69200
C        -19.87500       37.90600       54.36600
C        -19.79000       36.86500       53.27000
C        -20.92200       38.95600       54.03600
N        -21.62600       38.16000       58.72600
C        -22.31900       37.66800       59.91000
C        -23.77000       37.28400       59.64900
O        -24.62200       38.15400       59.47900
C        -22.32800       38.73000       61.01900
C        -20.98100       39.04300       61.59100
N        -20.01800       39.74300       60.89700
C        -20.45400       38.78600       62.81100
C        -18.95800       39.90600       61.66600
N        -19.19500       39.33700       62.83200
N        -24.07300       35.97800       59.59800
C        -25.47700       35.62800       59.36400
C        -26.25400       36.14800       60.57600
O        -25.86600       35.88700       61.71300
C        -25.44200       34.10200       59.29000
C        -24.23300       33.73800       60.11000
C        -23.23200       34.77600       59.69100
N        -27.33500       36.88800       60.34300
C        -28.09700       37.45800       61.45400
C        -29.59000       37.13400       61.46600
O        -30.05900       36.26500       60.73400
C        -27.92500       38.97900       61.46900
C        -27.81900       39.54000       62.87200
O        -28.62300       39.14300       63.74200
O        -26.93100       40.38600       63.10100
N        -30.32800       37.85800       62.30700
C        -31.76800       37.66800       62.45400
C        -32.62600       38.58100       61.57600
O        -32.13900       39.53400       60.96700
C        -32.20700       37.86600       63.92100
O        -31.86500       39.18900       64.35200
C        -31.52400       36.84600       64.82100
N        -33.91800       38.26900       61.54900
C        -34.89800       38.99400       60.75800
C        -34.69600       40.44600       60.36100
O        -34.39500       41.30700       61.19000
N        -34.87700       40.69900       59.06800
C        -34.77000       42.03500       58.51000
C        -33.49200       42.82800       58.68300
O        -33.40600       43.95500       58.19500
N        -32.49500       42.26800       59.35500
C        -31.25700       43.01000       59.55300
C        -30.26900       42.94300       58.39600
O        -30.02200       41.88300       57.82400
C        -30.54100       42.55700       60.82800
C        -29.34600       43.44400       61.17000
C        -28.50900       42.91400       62.32700
N        -27.47700       43.88000       62.70400
C        -26.53400       43.66400       63.61700
N        -26.47700       42.50800       64.26200
N        -25.64600       44.61200       63.88700
N        -29.72000       44.10500       58.06200
C        -28.70200       44.25100       57.02600
C        -27.97600       45.52600       57.41500
O        -28.46600       46.63000       57.17700
C        -29.29500       44.41900       55.62700
C        -28.24700       44.51800       54.54800
C        -27.59100       43.37700       54.09300
C        -27.86700       45.75500       54.03200
C        -26.56600       43.46400       53.14600
C        -26.84300       45.85500       53.08600
C        -26.19300       44.70600       52.64200
N        -26.80800       45.36900       58.01900
C        -26.03700       46.51200       58.47900
C        -24.55600       46.27500       58.21800
O        -24.05800       45.16700       58.40500
C        -26.30500       46.69000       59.96800
C        -25.82200       47.97500       60.58100
C        -26.30300       48.11000       62.00800
O        -26.35100       47.07800       62.71200
O        -26.63100       49.23700       62.42600
N        -23.85700       47.31800       57.78600
C        -22.43400       47.21100       57.49200
C        -21.60600       48.17000       58.34000
O        -21.97200       49.33000       58.52600
C        -22.15600       47.49100       55.99800
C        -22.94400       46.50200       55.13500
C        -20.66700       47.37400       55.71000
C        -22.80400       46.73600       53.64800
N        -20.48300       47.67100       58.84700
C        -19.58700       48.45900       59.68300
C        -18.17200       48.46900       59.12000
O        -17.71300       47.48200       58.54900
C        -19.54600       47.88000       61.09800
C        -20.85100       47.98200       61.83200
C        -21.18700       49.14300       62.51900
C        -21.74100       46.91200       61.84700
C        -22.39600       49.24400       63.20200
C        -22.95400       47.00200       62.52700
C        -23.27900       48.17000       63.21000
N        -17.48700       49.59400       59.29200
C        -16.11400       49.74900       58.83300
C        -15.32800       50.36700       59.98300
O        -15.61000       51.48900       60.41000
C        -16.05000       50.65900       57.60200
S        -14.41000       50.75400       56.84900
N        -14.35000       49.62600       60.48600
C        -13.54200       50.08600       61.60700
C        -14.43500       50.57500       62.74700
O        -14.16300       51.60300       63.35700
C        -12.59600       51.21400       61.17700
C        -11.54700       50.74700       60.18700
O        -11.11700       49.59400       60.22600
N        -11.11300       51.64400       59.31000
N        -15.50700       49.83800       63.02100
C        -16.40400       50.21200       64.09800
C        -17.45600       51.25100       63.75000
O        -18.38700       51.47300       64.52600
N        -17.31700       51.88900       62.59200
C        -18.27100       52.90900       62.16400
C        -19.33800       52.34000       61.23600
O        -19.01900       51.75200       60.20400
C        -17.56600       54.06300       61.42100
C        -18.58600       55.12500       61.02600
C        -16.47700       54.65700       62.29600
N        -20.60300       52.51700       61.60800
C        -21.70600       52.03700       60.78200
C        -21.75800       52.85800       59.50200
O        -21.94000       54.07600       59.54900
C        -23.04000       52.18300       61.50700
C        -24.21500       51.68000       60.68700
C        -25.54500       52.27500       61.14000
O        -25.96500       53.26400       60.67600
N        -26.18800       51.65100       62.03600
N        -21.60200       52.19400       58.36100
C        -21.64100       52.89600       57.08600
C        -22.89600       52.52900       56.29400
O        -23.08300       52.99100       55.16500
C        -20.38700       52.60600       56.22400
C        -20.25000       51.10900       55.96300
C        -19.15300       53.14400       56.93600
C        -19.05900       50.74700       55.09300
N        -23.75500       51.70000       56.88300
C        -24.99100       51.31000       56.22700
C        -25.97000       50.59000       57.13100
O        -25.60700       49.68900       57.89800
C        -24.71300       50.45900       54.98400
C        -25.89200       50.34600       54.06500
C        -26.91300       49.44700       54.15200
C        -26.21000       51.20800       52.96700
N        -27.85200       49.69800       53.18000
C        -27.44300       50.77500       52.43500
C        -25.57400       52.31200       52.37800
C        -28.05500       51.40000       51.34300
C        -26.18500       52.93900       51.29000
C        -27.41300       52.48000       50.78700
N        -27.23000       50.99800       57.02100
C        -28.31400       50.42000       57.80800
C        -29.53700       50.39000       56.88200
O        -30.06400       51.42700       56.48900
C        -28.58700       51.28600       59.03800
C        -29.71600       50.78300       59.90200
C        -30.24400       49.44600       59.47400
O        -29.45600       48.48900       59.51900
O        -31.43500       49.34100       59.10200
N        -30.00800       49.18600       56.57200
C        -31.13600       49.00700       55.66300
C        -32.35000       49.92400       55.91000
O        -32.78700       50.61900       54.97700
C        -31.58600       47.56000       55.68300
C        -32.63900       47.20300       54.64100
C        -33.08600       45.75200       54.76600
N        -33.80700       45.52600       56.01400
C        -35.05600       45.91800       56.23600
N        -35.73100       46.55500       55.29000
N        -35.62900       45.69500       57.41200
N        -32.90000       49.90200       57.12800
C        -34.04300       50.76300       57.40200
C        -33.72200       52.23500       57.20800
O        -34.44800       52.96900       56.55400
C        -34.55100       50.52600       58.80800
C        -34.76900       49.08300       59.08200
C        -35.10800       48.89000       60.51500
C        -35.27200       47.44200       60.80300
N        -35.79500       47.24800       62.18600
N        -32.62100       52.63200       57.81800
C        -32.14000       53.99600       57.76300
C        -32.04800       54.49600       56.33500
O        -32.54300       55.55800       55.97500
C        -30.77700       54.05700       58.41900
C        -30.14100       55.41200       58.46100
C        -28.82400       55.37200       59.18000
O        -27.89100       54.69300       58.73500
N        -28.72500       56.11500       60.30800
N        -31.42000       53.68900       55.49400
C        -31.20700       53.98300       54.07500
C        -32.42000       53.58900       53.23800
O        -32.56600       53.99200       52.07900
C        -30.00100       53.18200       53.57800
C        -28.52500       53.54500       53.96900
C        -28.14400       55.02800       54.00800
O        -28.69700       55.82900       53.20800
O        -27.27200       55.37500       54.84900
N        -33.30800       52.76500       53.81900
C        -34.50200       52.31900       53.08300
C        -34.13600       51.45200       51.87100
O        -34.70300       51.61300       50.77400
N        -33.14300       50.56000       52.05500
C        -32.77500       49.66600       50.97900
C        -31.35500       49.15800       51.06100
O        -30.77400       49.14600       52.14000
N        -30.79900       48.74300       49.91800
C        -29.45100       48.20900       49.87600
C        -28.53500       49.11100       49.06800
O        -28.96000       49.73600       48.11200
C        -29.46000       46.78700       49.29500
C        -30.33900       45.83500       50.05000
C        -31.71300       45.82400       49.83600
C        -29.80400       44.99400       51.02400
C        -32.54700       44.99700       50.59000
C        -30.62700       44.16900       51.77900
C        -31.99700       44.16900       51.56200
N        -27.24900       49.17900       49.45900
C        -26.22900       50.00500       48.80900
C        -25.73500       49.58800       47.44700
O        -25.67700       48.39500       47.13100
C        -25.09600       49.98800       49.82500
C        -25.14700       48.56900       50.28300
C        -26.63100       48.34800       50.50200
N        -25.38800       50.59000       46.65700
C        -24.85200       50.36300       45.33400
C        -23.38600       50.11600       45.59600
O        -22.84600       50.59200       46.59200
C        -24.98400       51.60100       44.47500
C        -26.28100       52.28700       44.61000
C        -26.72300       52.90100       43.31500
O        -26.28100       54.03400       42.98300
O        -27.52900       52.23000       42.64200
N        -22.74600       49.36800       44.71500
C        -21.33700       49.08600       44.89200
C        -20.53900       50.38100       45.02600
O        -19.67500       50.49800       45.89500
C        -20.82700       48.25200       43.71500
N        -20.84300       51.35900       44.17800
C        -20.13800       52.63100       44.19000
C        -20.26600       53.39100       45.51300
O        -19.27100       53.86200       46.06900
C        -20.63000       53.50400       43.03200
C        -19.87100       54.81300       42.85800
C        -20.30800       55.53200       41.58900
C        -21.79400       55.85600       41.62100
N        -22.24300       56.52400       40.37100
N        -21.49100       53.50900       46.01500
C        -21.74000       54.21400       47.26400
C        -21.00500       53.57100       48.43600
O        -20.37600       54.26100       49.24200
C        -23.24400       54.25500       47.58200
C        -23.47500       54.88400       48.94400
C        -23.97200       55.04700       46.51100
N        -21.08300       52.24700       48.52900
C        -20.41700       51.52600       49.61000
C        -18.90200       51.66600       49.53200
O        -18.24100       51.80000       50.56000
C        -20.78800       50.04000       49.58000
C        -20.32900       49.22300       50.79400
C        -21.03500       49.73500       52.04300
C        -20.62700       47.74700       50.57100
N        -18.35500       51.62000       48.32000
C        -16.90900       51.74900       48.12000
C        -16.47100       53.09700       48.65500
O        -15.47700       53.23500       49.35700
C        -16.56000       51.68300       46.62600
C        -16.57100       50.28900       46.01800
C        -16.22700       50.33700       44.53300
C        -16.36100       48.97200       43.87700
N        -16.18800       49.05300       42.40100
N        -17.26000       54.08800       48.30200
C        -16.99800       55.44800       48.67400
C        -16.98300       55.66000       50.19300
O        -16.04000       56.23800       50.73600
C        -18.05800       56.30200       48.01000
C        -18.02800       57.67700       48.47100
C        -19.32200       58.33300       48.42100
O        -19.89300       58.46300       47.35400
N        -19.82600       58.75200       49.57300
N        -18.03000       55.19600       50.87000
C        -18.14200       55.33000       52.31500
C        -17.00000       54.62800       53.03900
O        -16.59800       55.03700       54.12800
C        -19.48200       54.77300       52.78200
C        -20.65100       55.60500       52.30700
C        -21.92500       55.21800       53.01600
N        -23.07600       55.96700       52.51500
C        -24.26700       55.97400       53.09300
N        -24.47000       55.27400       54.20100
N        -25.25700       56.67700       52.56300
N        -16.48600       53.56000       52.43600
C        -15.37500       52.82100       53.02500
C        -14.09100       53.61400       52.80000
O        -13.25300       53.72700       53.69200
C        -15.20700       51.41900       52.37900
C        -13.84500       50.83200       52.73400
C        -16.31000       50.49700       52.86300
N        -13.96100       54.16800       51.59800
C        -12.78900       54.94400       51.22200
C        -12.60300       56.16700       52.13000
O        -11.48000       56.48900       52.52100
C        -12.89800       55.37400       49.75000
C        -11.66400       56.07600       49.19400
C        -11.77500       56.38500       47.69800
N        -11.65900       55.19500       46.85600
C        -12.67400       54.61700       46.21900
N        -13.89800       55.11600       46.32100
N        -12.46100       53.54100       45.47200
N        -13.70200       56.83400       52.48000
C        -13.62900       58.00700       53.34400
C        -13.19300       57.68600       54.77400
O        -12.81200       58.58900       55.53000
C        -14.97500       58.74700       53.36200
C        -15.37100       59.29200       51.99500
O        -14.47000       59.69900       51.22400
O        -16.57700       59.33700       51.69500
N        -13.25300       56.41100       55.14800
C        -12.86700       56.01000       56.49700
C        -11.51800       55.31000       56.52700
O        -10.95200       55.09300       57.59700
C        -13.86600       55.03500       57.10200
C        -15.23100       55.57400       57.51000
C        -16.14300       54.40200       57.77800
C        -15.07800       56.36600       58.79400
N        -11.02400       54.93700       55.35300
C         -9.77300       54.21300       55.20200
C         -8.48800       55.02900       55.31200
O         -8.48200       56.22900       55.03600
C         -9.76100       53.46000       53.85200
C        -10.81700       52.36600       53.89800
C         -8.39200       52.90700       53.54100
C        -10.83600       51.52600       52.61000
N         -7.42100       54.36700       55.69700
C         -6.10900       54.98200       55.77200
C         -5.78100       55.13000       54.28700
O         -5.44400       54.15500       53.60500
C         -5.09000       54.04500       56.40200
C         -3.70800       54.65200       56.48700
O         -3.38400       55.48900       55.62300
O         -2.93800       54.30600       57.39700
N         -5.88900       56.36000       53.76000
C         -5.60500       56.60300       52.34200
C         -4.14800       56.36800       51.97200
O         -3.72100       56.88100       50.92400
C         -5.99400       58.06700       52.18400
C         -5.61300       58.63800       53.48900
C         -6.12000       57.61100       54.47600
O        -24.90500       32.76600       34.61500
O        -15.12000       38.41900       32.38200
O        -28.39600       27.46000       46.22300
O        -29.16000       38.17000       48.41400
O        -34.80800       24.85200       35.70200
O        -27.21500       51.60100       39.48700
O        -23.64900       33.24100       38.66300
O        -34.88100       40.28700       46.17600
O        -20.04300       37.74600       42.52700
O        -25.67800       49.54200       28.09700
O        -18.96200       44.16000       39.27700
O        -30.81100       27.02800       40.58000
O        -33.63300       43.83900       45.83700
O        -33.08400       35.86800       26.14000
O        -32.11200       23.90600       32.54200
O        -40.20900       30.55500       29.85400
O        -31.65100       28.49800       50.41400
O        -35.86900       47.45800       29.81500
O        -32.18000       37.94500       47.20600
O        -38.34700       21.45000       39.33800
O        -30.83200       44.82200       45.29300
O        -14.59100       46.06600       28.06500
O        -31.21400       23.53000       30.18400
O         -5.93600       28.04300       38.94900
O         -9.90700       31.82800       42.95600
O        -21.03900       32.88200       37.62300
O        -20.72800       18.97300       49.24500
O        -28.25100       23.30100       43.32300
O        -25.93000       26.02100       45.72200
O         -7.06300       24.48900       41.43500
O         -9.46600       24.65000       43.07300
O         -8.05200       31.38100       40.02800
O         -9.80700       33.03800       37.17700
O        -26.69900       28.50500       26.40100
O        -22.54700       31.64500       33.98300
O        -14.39300       21.69600       42.90400
O        -30.48700       23.51900       45.66400
O        -33.58500       24.68600       45.21600
O        -19.49200       13.16300       43.48000
O        -21.60600       37.18700       23.30300
O        -20.79900       23.83800       24.78800
O        -19.97600       34.55500       44.06300
O         -9.79600       18.03400       39.41600
O        -32.81800       18.61800       48.09900
O        -13.25500       24.02400       19.99500
O        -15.78600       21.72200       18.74000
O         -6.23300       32.35100       35.69200
O         -7.42500       38.72500       40.27700
O        -18.51300        8.38100       40.27600
O        -15.11100       12.72600       45.27700
O        -14.99500       37.66600       25.21100
O        -26.97900       18.01500       27.55100
O        -23.52900       25.13000       51.17600
O        -22.19000       24.40500       45.56900
O        -22.56200       22.52000       48.43600
O        -18.32200       34.75200       50.55800
O        -29.40200       25.25900       48.01800
O          4.09300       26.27200       46.91500
O        -17.62100       18.65900       47.37900
O        -16.61000       35.73000       54.30700
O        -24.54500       21.49500       52.94900
O         -8.27400       40.75800       47.74000
O        -10.90900       31.02400       63.53700
O         -0.37600       28.90400       52.96500
O         -6.41500       36.68400       45.16800
O        -11.31200       23.48100       45.84100
O        -16.01700       16.21600       46.44400
O        -27.05800       25.82200       59.96800
O        -16.30500       20.70700       45.78300
O        -25.46500       31.90800       62.97000
O         -5.01300       26.82800       41.28600
O        -10.27600       17.96400       49.66500
O        -18.22300       26.81100       67.49800
O        -28.17500       26.75900       57.03000
O        -22.44800       37.87400       64.72000
O        -11.42300       38.16400       61.88800
O        -24.02100       19.76100       60.18200
O         -4.06000       30.59800       40.66800
O        -10.65900       33.21800       64.97400
O         -1.50600       24.53000       45.41200
O        -17.37300       37.32300       49.59500
O        -21.45100       54.56200       64.12000
O        -16.50200       38.36000       53.56100
O        -26.00000       32.33400       55.77800
O        -18.37200       50.21700       41.78800
O        -24.78200       46.35100       40.87700
O        -28.84900       44.05600       46.89800
O        -10.25600       58.36800       54.97400
O        -33.07600       35.45400       60.07800
O        -23.06300       36.27900       45.45400
O        -32.57000       34.75300       45.15300
O        -23.94100       35.80500       63.39100
O        -30.80100       51.45300       61.99900
O        -17.24900       46.61800       40.55700
O        -17.02800       54.78700       45.06600
O        -28.92100       34.69200       49.73500
O        -18.85000       56.94300       55.79500
O        -16.85900       34.31300       43.43100
O        -24.41300       48.56500       42.43200
O        -15.07600       53.05600       43.46200
O        -15.11700       45.32900       63.78900
O        -19.53500       61.82700       50.85400
O        -22.61500       50.88500       41.70300
O        -16.08200       47.46300       61.70700
O        -29.60500       43.68600       65.65000
O         -5.46500       41.20200       55.76400
