16613
Stripak
N        222.51500      150.71900       93.84300
C        221.45300      149.74400       94.07300
C        221.25800      149.42600       95.56500
O        220.12300      149.45200       96.04000
C        221.72700      148.45800       93.28100
C        220.53100      147.54000       93.11400
C        219.80300      147.52500       91.93100
C        220.14100      146.67900       94.13200
C        218.72000      146.68800       91.76900
C        219.05900      145.83900       93.97700
C        218.35200      145.84700       92.79400
O        217.27100      145.01100       92.63400
N        222.33300      149.12200       96.30900
C        222.14700      148.90100       97.75300
C        221.69400      150.14600       98.48900
O        220.83600      150.05400       99.37600
C        223.53300      148.43300       98.22200
C        224.20500      147.93800       96.99000
C        223.73000      148.85600       95.91600
N        222.23500      151.31300       98.13800
C        221.75800      152.56100       98.72100
C        220.27300      152.73900       98.45000
O        219.51100      153.16200       99.32800
C        222.57000      153.74300       98.16900
C        224.04000      153.61700       98.56500
C        221.98600      155.05800       98.65200
C        224.83400      154.86400       98.28200
N        219.83900      152.40800       97.23100
C        218.43900      152.58000       96.86100
C        217.52500      151.72500       97.72800
O        216.53100      152.22500       98.26700
C        218.24600      152.24300       95.38300
N        217.84200      150.43500       97.87700
C        216.98300      149.57100       98.68000
C        217.06900      149.95200      100.15100
O        216.09800      149.78100      100.89900
C        217.32900      148.08600       98.44900
C        218.76700      147.79700       98.83300
C        216.36800      147.18800       99.22000
N        218.21000      150.49400      100.59200
C        218.26000      151.07200      101.93200
C        217.26400      152.21300      102.08000
O        216.57500      152.31200      103.09700
C        219.66900      151.55700      102.26600
C        220.74800      150.50300      102.48200
C        222.09600      151.06800      102.12300
C        220.73200      150.04200      103.93200
N        217.18200      153.09100      101.08100
C        216.22100      154.19000      101.15600
C        214.79500      153.65400      101.15700
O        213.93900      154.12700      101.91600
C        216.44900      155.19600      100.01100
C        217.87700      155.73800      100.04200
C        215.44100      156.33300      100.08500
C        218.42500      156.08100       98.67600
N        214.51600      152.65700      100.31500
C        213.16100      152.11100      100.25800
C        212.76500      151.46400      101.58100
O        211.68600      151.74700      102.11400
C        213.01600      151.11000       99.11100
C        213.47100      151.67000       97.78200
O        212.84500      152.63700       97.29800
O        214.41100      151.10800       97.18800
N        213.61800      150.59200      102.12700
C        213.34000      150.01300      103.43700
C        213.24400      151.09700      104.50400
O        212.48400      150.96400      105.47000
C        214.41600      148.98900      103.80200
C        214.49800      147.79200      102.86100
C        213.68200      146.60500      103.34000
O        213.48600      146.46500      104.56600
O        213.23800      145.80700      102.48800
N        214.00400      152.17900      104.34100
C        213.90400      153.34400      105.20800
C        212.72400      154.23500      104.84900
O        212.41200      155.16000      105.60700
C        215.20100      154.15600      105.15100
C        216.25400      153.89500      106.23000
C        215.78100      154.43000      107.56800
C        216.58700      152.41700      106.33300
N        212.08300      153.99600      103.70500
C        210.82700      154.65300      103.37800
C        209.61800      153.83800      103.81300
O        208.48300      154.25500      103.55700
C        210.74900      154.92900      101.87500
N        209.83900      152.69200      104.45400
C        208.74400      151.83400      104.88000
C        207.90200      152.52700      105.94400
O        208.40400      153.29800      106.76500
C        209.29300      150.51000      105.41200
C        208.21500      149.62000      105.99300
O        208.05000      149.54200      107.20800
N        207.47300      148.94500      105.12500
N        206.60000      152.24500      105.92200
C        205.68800      152.87600      106.86800
C        205.84700      152.29400      108.26700
O        205.88100      153.03400      109.25600
C        204.24500      152.72400      106.38600
N        205.94800      150.97100      108.36600
C        206.02400      150.31400      109.66400
C        207.35700      150.61100      110.33600
O        208.41800      150.49400      109.71600
C        205.83200      148.81000      109.49400
C        205.78600      148.07200      110.81700
O        205.73600      148.73400      111.87400
O        205.79700      146.82300      110.79700
N        207.29900      150.99300      111.61300
C        208.51500      151.26900      112.36300
C        209.31100      149.99900      112.62900
O        210.53800      150.05600      112.73900
C        208.15800      151.99200      113.67600
C        209.39500      152.22400      114.52800
C        207.46000      153.30800      113.37400
N        208.64800      148.84200      112.70300
C        209.35000      147.59500      112.99500
C        210.16300      147.10600      111.80200
O        211.31400      146.68700      111.96200
C        208.35400      146.52200      113.43300
N        209.58300      147.14200      110.60200
C        210.33800      146.77100      109.41000
C        211.50100      147.72900      109.18900
O        212.61100      147.31300      108.82900
C        209.41500      146.75700      108.19200
C        208.03700      146.13200      108.39800
C        207.23800      146.18900      107.10900
C        208.16400      144.70100      108.89500
N        211.26000      149.02500      109.39400
C        212.34300      149.99300      109.29600
C        213.42400      149.70900      110.32600
O        214.61400      149.79000      110.01800
C        211.79700      151.40700      109.45700
C        210.97500      151.86300      108.27700
C        211.32400      153.28600      107.89600
N        210.41700      154.25100      108.50700
C        210.46400      155.56100      108.29300
N        211.37900      156.07200      107.48100
N        209.59600      156.36200      108.89400
N        213.02900      149.35200      111.54900
C        214.00300      149.03900      112.58800
C        214.80200      147.79200      112.23600
O        215.98000      147.68100      112.59200
C        213.29000      148.86100      113.92700
C        213.98900      149.43600      115.15400
C        214.46200      150.85200      114.87800
C        213.04600      149.40500      116.34100
N        214.16900      146.83800      111.55200
C        214.90500      145.69900      111.01200
C        215.94100      146.16300      109.99800
O        217.10900      145.76000      110.05500
C        213.94100      144.69800      110.37300
C        214.57700      143.92000      109.22800
O        214.63000      144.39300      108.09300
N        215.06600      142.72200      109.52700
N        215.51800      147.00500      109.05100
C        216.45800      147.60100      108.10400
C        217.62500      148.25700      108.83200
O        218.77800      148.15800      108.39800
C        215.73800      148.62300      107.22400
O        215.47800      149.81300      107.94700
N        217.33800      148.91800      109.95400
C        218.39200      149.53300      110.75800
C        219.33000      148.46700      111.30200
O        220.55700      148.57900      111.20100
C        217.79600      150.37100      111.90200
C        216.66800      151.28300      111.41400
C        218.89000      151.15400      112.60100
C        216.96400      152.04800      110.15100
N        218.76500      147.42200      111.90600
C        219.58300      146.33200      112.41800
C        220.27700      145.56400      111.30300
O        221.11300      144.69900      111.58700
C        218.72800      145.37900      113.25300
N        219.95900      145.86200      110.04500
C        220.50400      145.14700      108.89900
C        221.26100      146.07300      107.94800
O        221.08600      146.01600      106.72900
C        219.39800      144.39800      108.16400
C        218.81000      143.25500      108.97900
C        219.91200      142.41200      109.61400
C        219.34800      141.26400      110.44100
N        218.57900      141.73300      111.62300
N        222.10900      146.94500      108.50100
C        223.06600      147.67100      107.67200
C        224.31900      146.84600      107.41300
O        224.98000      147.03500      106.38400
C        223.45100      148.99800      108.32900
C        222.34800      149.80500      109.00800
C        222.91100      151.09500      109.57100
C        221.22300      150.09700      108.03300
N        224.66100      145.94100      108.33400
C        225.77400      145.02900      108.10100
C        225.51700      144.14400      106.89100
O        226.46200      143.74100      106.20500
C        226.01600      144.16900      109.33800
O        224.82800      143.50100      109.72300
N        224.25000      143.83700      106.61300
C        223.92200      143.08500      105.40800
C        224.35600      143.83600      104.15600
O        224.95000      143.25000      103.24200
C        222.42300      142.80400      105.36800
O        221.72200      144.02000      105.08500
C        221.95400      142.25600      106.70100
N        224.07500      145.13700      104.09900
C        224.48400      145.92700      102.94400
C        225.99600      146.11800      102.92800
O        226.61400      146.15700      101.85500
C        223.72800      147.26900      102.93200
C        222.22500      147.01900      102.82400
C        224.19300      148.14600      101.78200
C        221.80200      146.41000      101.49600
N        226.62000      146.23000      104.10300
C        228.07200      146.36600      104.15800
C        228.76200      145.13300      103.58700
O        229.71700      145.24800      102.80900
C        228.52400      146.61900      105.59600
N        228.29800      143.94000      103.96600
C        228.86700      142.72400      103.39300
C        228.48200      142.56800      101.92800
O        229.23700      141.97000      101.15200
C        228.43500      141.49500      104.19900
C        226.94800      141.15200      104.33800
C        226.48100      140.20700      103.24000
C        226.65500      140.55800      105.70800
N        227.31800      143.09000      101.53100
C        226.93000      143.05000      100.12500
C        227.92200      143.82300       99.26500
O        228.57700      143.25200       98.38500
C        225.51700      143.60900       99.95300
N        228.04900      145.12400       99.50900
C        229.02000      145.93900       98.80000
C        230.43600      145.55300       99.22100
O        230.64900      144.74700      100.13100
C        228.76000      147.42300       99.05700
C        227.61500      148.10000       98.29700
C        227.32600      149.47400       98.87800
C        227.94100      148.20700       96.81600
N        231.42300      146.13500       98.54500
C        232.80500      145.99500       98.93700
C        233.20500      147.12000       99.87100
O        232.59800      148.18600       99.86800
N        234.23800      146.86300      100.68000
C        234.66400      147.84000      101.68200
C        234.99800      149.17400      101.02600
O        234.64400      150.24300      101.54200
C        235.85300      147.29000      102.49200
C        236.33500      148.32100      103.50200
C        235.46100      145.99500      103.18800
N        235.67100      149.13600       99.87500
C        235.91000      150.36300       99.12100
C        234.59900      150.94900       98.61400
O        234.33900      152.14900       98.76600
C        236.86800      150.08800       97.96200
C        237.09400      151.28100       97.05100
C        236.30000      151.19000       95.76700
O        236.10800      150.06400       95.26600
O        235.86700      152.24600       95.25900
N        233.75600      150.11100       98.00500
C        232.43400      150.56700       97.59700
C        231.60500      150.99800       98.79800
O        230.84400      151.96700       98.70600
C        231.71600      149.46800       96.81600
C        232.56500      148.85700       95.71600
C        231.71600      148.21900       94.63100
N        230.81600      147.19800       95.15700
C        231.17900      145.94800       95.42000
N        230.29200      145.08400       95.89300
N        232.43100      145.56300       95.21700
N        231.75400      150.30300       99.92900
C        231.10300      150.72500      101.16500
C        231.45700      152.16700      101.49700
O        230.58000      153.03300      101.58300
C        231.50500      149.79400      102.31300
O        231.35700      148.42900      101.90400
C        230.64900      150.05000      103.53800
N        232.75000      152.44500      101.66400
C        233.18200      153.79300      102.01600
C        232.71900      154.81100      100.98100
O        232.25300      155.90100      101.33100
C        234.70300      153.83100      102.16600
C        235.29500      155.22300      102.06600
C        236.80900      155.18600      102.07900
N        237.36300      154.54600      100.88900
C        237.92300      153.34100      100.88200
N        238.40200      152.83500       99.75400
N        238.00900      152.64200      102.00500
N        232.82600      154.46700       99.69500
C        232.54200      155.43900       98.64500
C        231.05400      155.72200       98.49100
O        230.68500      156.79500       98.00000
C        233.11000      154.96000       97.30800
O        232.66500      153.65400       97.00000
N        230.19000      154.79000       98.88500
C        228.76800      154.92800       98.60400
C        227.92400      155.07200       99.85900
O        227.16300      156.04000       99.97900
C        228.29900      153.71800       97.78400
C        227.76900      154.06400       96.40800
C        227.40700      152.83000       95.61100
O        228.11200      151.80800       95.75200
O        226.42400      152.87900       94.84400
N        228.04200      154.14100      100.81000
C        227.18300      154.18300      101.98700
C        227.48600      155.40200      102.84700
O        226.57600      155.99600      103.43700
C        227.34700      152.89900      102.79800
C        226.96900      151.62000      102.05200
C        227.15700      150.39500      102.93200
C        225.54900      151.70700      101.52900
N        228.76200      155.79000      102.93000
C        229.11300      156.96300      103.72800
C        228.43500      158.22300      103.20700
O        227.84300      158.95700      104.01700
C        230.63600      157.10800      103.80700
C        231.31700      156.40700      104.98100
C        230.73700      156.90800      106.29100
C        231.17000      154.90000      104.86700
N        228.46600      158.54000      101.90600
C        227.61200      159.63900      101.42800
C        226.14100      159.42200      101.73200
O        225.42800      160.38200      102.05200
C        227.88700      159.65800       99.91900
C        229.26500      159.13900       99.79600
C        229.39200      158.08200      100.85300
N        225.66900      158.17600      101.65300
C        224.26700      157.89200      101.93900
C        223.95600      158.09100      103.41700
O        223.03500      158.83300      103.77600
C        223.91800      156.47000      101.50800
C        222.69600      155.92400      102.18300
C        221.44700      156.46500      101.92500
C        222.79500      154.87400      103.07800
C        220.31700      155.96500      102.54600
C        221.66800      154.36800      103.70200
C        220.42800      154.91500      103.43400
N        224.71300      157.42900      104.29400
C        224.51200      157.62200      105.72500
C        224.88600      159.02600      106.17900
O        224.71500      159.34400      107.36100
C        225.30500      156.58200      106.52400
C        226.83400      156.64500      106.56800
C        227.31600      157.32000      107.84200
C        227.42100      155.24900      106.45800
N        225.40500      159.86200      105.27900
C        225.67600      161.25400      105.61100
C        224.50000      162.14800      105.23400
O        224.00300      162.92400      106.05700
C        226.95300      161.72000      104.90700
O        228.03000      160.83200      105.22900
C        227.31500      163.12600      105.34400
N        224.04000      162.04500      103.98900
C        222.99400      162.92700      103.49200
C        221.59700      162.40000      103.80100
O        220.81500      163.07300      104.47900
C        223.15700      163.13300      101.98400
N        221.27200      161.20200      103.32000
C        219.91200      160.67600      103.40500
C        219.75400      159.91700      104.72000
O        219.83700      158.69100      104.78300
C        219.60000      159.79500      102.19800
O        220.13200      160.40300      101.01400
C        218.09700      159.62900      102.03700
N        219.52600      160.67900      105.78900
C        219.21400      160.11900      107.09900
C        218.06000      160.91300      107.69500
O        218.26000      162.00100      108.24600
C        220.43900      160.13800      108.03100
C        221.57500      159.29800      107.44700
C        220.06900      159.61800      109.41000
C        221.30900      157.81500      107.46900
N        216.84100      160.38000      107.57700
C        215.64300      161.06600      108.06500
C        214.64200      159.99400      108.48800
O        214.03700      159.34100      107.63400
C        215.05400      161.98200      107.00000
C        216.05200      162.92500      106.36300
C        216.35500      164.14700      106.94800
C        216.69300      162.59000      105.17800
C        217.26800      165.01100      106.36800
C        217.60800      163.44600      104.59300
C        217.89200      164.65400      105.19000
O        218.80100      165.50600      104.60600
N        214.46800      159.82500      109.79500
C        213.54900      158.82600      110.32900
C        213.14700      159.24500      111.74000
O        213.37300      160.38800      112.15300
C        214.18200      157.43000      110.29900
C        213.15100      156.32400      110.18100
O        212.01900      156.51600      110.66800
O        213.47000      155.26500      109.60300
N        212.53500      158.32000      112.47600
C        212.18200      158.58200      113.86400
C        213.43800      158.81600      114.69500
O        214.50900      158.27400      114.40900
C        211.38300      157.41500      114.44900
C        210.55400      156.64700      113.43600
C        209.50600      157.50600      112.76300
O        208.58900      157.98200      113.46200
O        209.60200      157.70900      111.53500
N        213.29500      159.64000      115.73600
C        214.42900      159.94800      116.60000
C        215.02500      158.68100      117.20000
O        216.25000      158.53900      117.27800
C        214.00200      160.91800      117.70000
N        214.17200      157.74700      117.62700
C        214.66900      156.46200      118.10400
C        215.36400      155.69900      116.98500
O        216.39900      155.06000      117.20600
C        213.52400      155.63900      118.69000
N        214.82200      155.77100      115.76800
C        215.46300      155.11600      114.63200
C        216.74200      155.84700      114.23600
O        217.70700      155.22000      113.78800
C        214.47400      155.01200      113.45700
C        215.15100      154.42300      112.23700
C        213.27400      154.16900      113.85400
N        216.78400      157.17100      114.40100
C        218.02900      157.89900      114.17800
C        219.10000      157.45200      115.16700
O        220.26100      157.23400      114.79700
C        217.78300      159.40300      114.29200
C        216.85400      160.04000      113.25500
C        216.53200      161.47700      113.62800
C        217.45900      159.97200      111.86400
N        218.72000      157.31000      116.43800
C        219.64400      156.78700      117.43700
C        220.08900      155.37600      117.08500
O        221.25800      155.02100      117.26700
C        218.98500      156.80400      118.81400
C        219.44000      157.88000      119.79200
C        218.63300      157.77700      121.07100
C        220.91800      157.72700      120.07300
N        219.16300      154.55300      116.59400
C        219.51000      153.19400      116.19800
C        220.50400      153.19500      115.04400
O        221.43000      152.37800      115.01300
C        218.24500      152.42400      115.82700
N        220.31800      154.09700      114.08000
C        221.31000      154.27400      113.02400
C        222.66600      154.64100      113.60900
O        223.69600      154.08400      113.21500
C        220.84400      155.34700      112.04100
C        219.65600      155.01100      111.15900
C        219.39500      156.13600      110.19000
C        220.03300      153.75800      110.40500
N        222.68600      155.59300      114.54200
C        223.94600      155.96900      115.17300
C        224.60100      154.77900      115.86200
O        225.82500      154.61700      115.79800
C        223.71800      157.10300      116.17100
N        223.80300      153.93300      116.51400
C        224.35300      152.78100      117.22200
C        224.91300      151.75400      116.24600
O        226.01100      151.22500      116.44800
C        223.28300      152.15200      118.11500
C        222.77400      153.07500      119.21100
C        221.27800      152.96700      119.40500
O        220.68300      153.88800      120.00300
O        220.69600      151.95800      118.95900
N        224.16600      151.45700      115.18200
C        224.67700      150.57800      114.13700
C        225.91200      151.15800      113.46200
O        226.72700      150.40200      112.92200
C        223.58400      150.31000      113.10000
C        222.30500      149.72200      113.67900
C        222.32600      148.20800      113.73600
O        221.71000      147.60000      114.60900
N        223.03100      147.59200      112.79500
N        226.06200      152.48400      113.48200
C        227.24700      153.13500      112.93800
C        228.43000      153.05100      113.89300
O        229.58100      153.01800      113.44600
C        226.92700      154.59700      112.61900
C        228.05900      155.60600      112.41600
C        228.99300      155.18300      111.29000
C        227.49800      156.99900      112.15900
N        228.16700      153.00500      115.20100
C        229.22900      152.98600      116.19400
C        230.26600      151.90000      115.99100
O        231.36100      151.99000      116.55600
N        229.95000      150.87300      115.20300
C        230.88900      149.80600      114.88700
C        231.35000      149.84600      113.43600
O        231.72500      148.80700      112.88300
C        230.26900      148.44300      115.19600
O        231.11700      147.40800      114.68400
C        228.89000      148.32500      114.55300
N        231.33000      151.02000      112.80700
C        231.66300      151.14500      111.39400
C        233.01400      151.81500      111.16600
O        233.23400      152.41100      110.10800
C        230.56100      151.90500      110.65700
C        230.16500      151.27500      109.35800
C        230.20900      152.00100      108.18000
C        229.75900      149.95300      109.31200
C        229.84700      151.42100      106.98100
C        229.39600      149.36700      108.11700
C        229.44000      150.10200      106.94900
N        233.92300      151.73200      112.13700
C        235.28400      152.21000      111.93200
C        236.14300      151.21900      111.16100
O        237.26600      151.56500      110.77800
C        235.95500      152.51400      113.27300
O        237.16000      153.25700      113.04700
C        236.29700      151.22400      114.00200
N        235.64700      150.00400      110.93000
C        236.40600      148.95700      110.26000
C        235.91300      148.67200      108.84900
O        236.72600      148.57500      107.92500
C        236.36200      147.66500      111.08100
O        236.68100      147.95700      112.44700
C        237.36000      146.65600      110.53500
N        234.60100      148.54200      108.65400
C        234.07000      148.24100      107.32900
C        234.18000      149.40900      106.35900
O        233.74800      149.27500      105.20900
C        232.61200      147.79200      107.43600
C        232.36200      146.30400      107.18500
C        232.44900      145.99700      105.70000
C        233.35000      145.45700      107.96600
N        234.73000      150.54200      106.78300
C        235.01600      151.63400      105.86000
C        236.40500      151.49100      105.25600
O        236.60800      151.78100      104.07400
C        234.84800      152.98500      106.58200
C        235.28100      154.13600      105.68300
C        233.40900      153.16400      107.02500
N        237.36900      151.02600      106.04700
C        238.72700      150.86100      105.56900
C        239.78600      151.24200      106.58400
O        240.98400      151.15500      106.29900
N        239.36100      151.67600      107.76800
C        240.27700      151.93300      108.85200
C        240.57300      153.40300      109.07100
O        239.74600      154.28000      108.80400
N        241.77600      153.69500      109.57600
C        242.10800      155.09400      109.89300
C        242.25400      155.97500      108.66600
O        241.82400      157.13600      108.69000
C        243.43100      154.97200      110.66600
C        243.51800      153.53200      111.08500
C        242.83000      152.76500      110.00600
N        242.83000      155.44900      107.58100
C        243.14300      156.26000      106.40800
C        241.91600      156.91500      105.78700
O        242.05800      157.70600      104.84800
C        243.85100      155.40300      105.35600
N        240.71500      156.59900      106.27900
C        239.48200      157.15900      105.73800
C        238.57100      157.71800      106.82600
O        237.38200      157.93000      106.57000
C        238.72500      156.11000      104.92100
C        239.61200      155.21000      104.09400
C        240.15600      155.65100      102.89800
C        239.90400      153.91900      104.51000
C        240.96500      154.83100      102.13500
C        240.71400      153.09100      103.75500
C        241.24200      153.55100      102.56700
O        242.05000      152.73200      101.81000
N        239.09500      157.95600      108.03300
C        238.25100      158.47400      109.10900
C        237.59300      159.78800      108.71300
O        236.47500      160.08400      109.15100
C        239.05600      158.61700      110.41600
C        239.51400      157.25900      110.90300
C        240.25300      159.53300      110.20500
N        238.26000      160.58700      107.87500
C        237.65300      161.81600      107.37800
C        236.29200      161.54300      106.75400
O        235.31800      162.25200      107.03100
C        238.57600      162.49100      106.36500
N        236.20100      160.49900      105.92800
C        234.94800      160.18700      105.25100
C        233.82300      159.85500      106.22300
O        232.65100      159.90400      105.83300
C        235.15600      159.02600      104.27900
S        236.22600      159.41600      102.87700
N        234.14200      159.52700      107.47400
C        233.11500      159.23400      108.46400
C        232.70200      160.45200      109.27800
O        231.74600      160.36000      110.05400
C        233.58900      158.13600      109.42300
C        233.78100      156.72400      108.86900
C        235.23600      156.47200      108.51600
C        233.27900      155.69500      109.86800
N        233.39800      161.57700      109.13300
C        233.16700      162.73600      109.99300
C        231.96400      163.59600      109.60000
O        231.25400      164.06800      110.49700
C        234.43300      163.59600      110.06300
C        235.36200      163.35700      111.26000
C        234.86100      164.10500      112.48600
C        235.53800      161.88000      111.56700
N        231.70800      163.86100      108.31600
C        230.51800      164.65100      107.95400
C        229.24700      164.09700      108.58000
O        228.54100      164.84300      109.27700
C        230.48500      164.56300      106.42100
C        231.89900      164.42300      106.04400
C        232.56400      163.62700      107.13600
N        228.92200      162.80500      108.39400
C        227.62700      162.32700      108.91600
C        227.47900      162.53200      110.41200
O        226.46600      163.08000      110.86700
C        227.62400      160.84200      108.53600
C        229.04400      160.48100      108.43300
C        229.70800      161.68000      107.85000
N        228.48800      162.12900      111.18900
C        228.45000      162.33500      112.63300
C        228.27000      163.80800      112.97600
O        227.57000      164.14700      113.93700
C        229.72500      161.78300      113.26500
C        229.81100      160.25800      113.32100
C        231.25500      159.79600      113.27000
C        229.12000      159.73700      114.56900
N        228.88700      164.69900      112.19600
C        228.63900      166.12400      112.37800
C        227.15500      166.43000      112.24200
O        226.54800      167.03400      113.13400
C        229.45300      166.93100      111.36900
N        226.54600      165.99300      111.13600
C        225.10800      166.16200      110.96700
C        224.32200      165.42000      112.03600
O        223.14100      165.71800      112.24000
C        224.67200      165.69100      109.57800
O        225.27500      164.45500      109.24100
N        224.94600      164.45900      112.71400
C        224.31700      163.75900      113.82400
C        224.76800      164.27900      115.18300
O        224.20700      163.86700      116.20400
C        224.58500      162.25300      113.72500
C        223.64700      161.41900      112.84200
C        222.24600      161.38000      113.44100
C        223.59500      161.91300      111.40000
N        225.76500      165.16200      115.22500
C        226.12900      165.83400      116.46400
C        225.37400      167.14000      116.66300
O        225.44300      167.72100      117.75200
C        227.63700      166.10400      116.50300
N        224.65900      167.60800      115.64300
C        223.89900      168.84700      115.70600
C        222.40700      168.61200      115.89200
O        221.62200      169.55600      115.76200
C        224.13000      169.67300      114.44200
O        223.26100      170.81200      114.45300
C        223.84100      168.83400      113.20700
N        221.99800      167.37700      116.18000
C        220.58200      167.08100      116.34000
C        220.05100      167.74500      117.60500
O        220.79100      168.00200      118.56500
C        220.34900      165.56100      116.37000
C        220.39900      164.99300      114.96000
C        221.38400      164.89700      117.25300
N        218.74700      168.02900      117.60600
C        218.13900      168.71300      118.74100
C        218.06700      167.81700      119.97100
O        218.10600      168.31700      121.10000
C        216.74500      169.21400      118.36600
N        217.96100      166.50500      119.77800
C        217.88900      165.58000      120.90000
C        219.28300      165.33200      121.46400
O        220.23800      165.11100      120.71200
C        217.24200      164.26600      120.47000
N        219.39100      165.36100      122.79300
C        220.69400      165.29200      123.44700
C        221.33900      163.92300      123.26700
O        222.52500      163.81800      122.93400
C        220.54800      165.62000      124.93400
O        220.04100      164.47300      125.62900
C        219.59400      166.79100      125.13100
N        220.57200      162.85700      123.49700
C        221.14600      161.51400      123.49100
C        221.56600      161.09300      122.08800
O        222.49400      160.29000      121.92700
C        220.15100      160.51600      124.11300
C        219.87800      160.88400      125.56300
C        218.85500      160.50500      123.32100
N        220.91800      161.63000      121.05400
C        221.30900      161.29200      119.68900
C        222.70000      161.83500      119.38600
O        223.59100      161.10000      118.94000
C        220.26500      161.80700      118.68300
C        220.53900      161.23300      117.30500
C        218.86800      161.42900      119.13700
N        222.91800      163.12600      119.64100
C        224.25400      163.67500      119.44600
C        225.24500      163.08700      120.44200
O        226.44700      163.06400      120.17100
C        224.23000      165.19900      119.54600
C        223.99100      165.74100      120.94000
C        224.13000      167.25200      120.96300
N        223.58100      167.82200      122.18600
C        222.30100      168.13800      122.34600
N        221.44000      167.94000      121.35800
N        221.88200      168.65000      123.49300
N        224.76400      162.58300      121.58000
C        225.66100      161.91400      122.51600
C        226.17400      160.59900      121.94000
O        227.37200      160.30100      122.01900
C        224.95000      161.68000      123.84800
N        225.27900      159.79600      121.36300
C        225.71700      158.60400      120.64600
C        226.61300      158.97800      119.47400
O        227.53700      158.23500      119.12500
C        224.50800      157.80200      120.16700
N        226.35300      160.13300      118.85500
C        227.23300      160.61500      117.79600
C        228.64600      160.85800      118.31800
O        229.62400      160.44500      117.68900
C        226.66000      161.88900      117.17500
N        228.76900      161.53300      119.46300
C        230.08200      161.76700      120.06900
C        230.74000      160.44500      120.44500
O        231.95700      160.27300      120.30400
C        229.95900      162.70400      121.28600
C        231.33300      163.01800      121.85500
C        229.28200      164.00100      120.88400
N        229.94700      159.49600      120.94300
C        230.49100      158.18100      121.26200
C        231.06100      157.50000      120.02700
O        232.17300      156.96200      120.07100
C        229.41500      157.30400      121.90100
N        230.32800      157.53400      118.91400
C        230.81400      156.91000      117.68900
C        232.02600      157.65100      117.13400
O        232.94100      157.02700      116.58600
C        229.68900      156.85300      116.65900
O        228.46100      156.50300      117.27300
N        232.04900      158.98000      117.26700
C        233.23100      159.75000      116.88800
C        234.45500      159.29600      117.66900
O        235.50300      158.99400      117.08600
C        232.98300      161.24400      117.11100
C        231.98600      161.96800      116.21300
C        231.28300      163.09400      116.94600
C        232.74200      162.51600      115.01300
N        234.34000      159.24900      118.99700
C        235.46400      158.82500      119.82400
C        235.84100      157.37700      119.54100
O        236.99500      156.97800      119.73400
C        235.12900      159.01600      121.30300
N        234.87700      156.57400      119.08600
C        235.17600      155.18900      118.74200
C        235.96100      155.09200      117.44000
O        236.88500      154.28000      117.32500
C        233.88300      154.38100      118.64600
N        235.60800      155.90800      116.44600
C        236.21700      155.75300      115.13000
C        237.53800      156.51000      115.02900
O        238.42000      156.12100      114.25300
C        235.23700      156.19700      114.03000
C        234.90300      157.68200      114.17500
C        233.96200      155.36400      114.07800
C        235.50500      158.54800      113.09800
N        237.70400      157.58800      115.78900
C        238.90800      158.40400      115.69000
C        240.09800      157.70800      116.34000
O        241.16100      157.58000      115.73200
C        238.68300      159.77400      116.33300
O        239.63300      160.71700      115.86800
N        247.26300      158.43500      111.01100
C        246.29800      158.82500      109.99000
C        245.17300      159.64600      110.60100
O        244.19400      159.97600      109.93100
C        245.74000      157.59700      109.29000
N        245.31800      159.97700      111.88200
C        244.29100      160.72400      112.59400
C        244.39800      162.21600      112.30600
O        243.70800      163.02200      112.93500
C        244.38300      160.46100      114.09600
N        245.26200      162.59400      111.36100
C        245.37100      164.00100      110.98800
C        244.10900      164.48100      110.28400
O        243.65200      165.60900      110.50900
C        246.59400      164.21600      110.09800
N        243.53800      163.64500      109.41600
C        242.26900      163.99500      108.79200
C        241.16400      164.08800      109.83300
O        240.30300      164.97400      109.75800
C        241.91600      162.97600      107.71100
N        241.17600      163.18300      110.81500
C        240.23000      163.28100      111.91900
C        240.43200      164.56300      112.71100
O        239.46200      165.14800      113.19200
C        240.35600      162.06600      112.83600
N        241.67400      165.03700      112.82800
C        241.92700      166.27300      113.56200
C        241.44700      167.49200      112.78100
O        240.88700      168.43100      113.36000
C        243.41500      166.39300      113.88500
N        241.67500      167.50200      111.46800
C        241.16200      168.58900      110.63900
C        239.64000      168.62400      110.68100
O        239.02600      169.68400      110.86200
C        241.66500      168.43800      109.20300
N        239.01000      167.46000      110.54100
C        237.56300      167.39900      110.65800
C        237.08900      167.66800      112.08200
O        235.93500      168.05100      112.27600
C        237.07500      166.04200      110.16800
N        237.96100      167.51500      113.07900
C        237.61300      167.89300      114.44300
C        237.61300      169.40200      114.61200
O        236.76000      169.95100      115.31200
C        238.58300      167.25400      115.43200
N        238.58100      170.08400      114.00300
C        238.50900      171.54000      113.93600
C        237.25900      171.97700      113.18200
O        236.63400      172.98800      113.52300
C        239.76900      172.10400      113.28100
N        236.86400      171.20400      112.16700
C        235.60700      171.47400      111.47300
C        234.39800      171.27400      112.38400
O        233.43100      172.04000      112.31100
C        235.49200      170.58500      110.23500
N        234.43200      170.25900      113.24900
C        233.33200      170.05200      114.18700
C        233.33300      171.11600      115.27900
O        232.27700      171.46900      115.81200
C        233.41000      168.65100      114.79300
N        234.50800      171.64400      115.61800
C        234.57200      172.80100      116.50500
C        233.95500      174.02300      115.84000
O        233.26000      174.81500      116.48800
C        236.02100      173.07700      116.90500
N        234.19400      174.18800      114.53800
C        233.53500      175.25200      113.78800
C        232.02400      175.05600      113.76600
O        231.26200      176.02700      113.84500
C        234.09000      175.31200      112.36600
N        231.57400      173.80600      113.64600
C        230.14400      173.52300      113.71000
C        229.57200      173.84100      115.08700
O        228.46300      174.37600      115.19200
C        229.88200      172.06200      113.34800
N        230.31300      173.51300      116.14800
C        229.91800      173.87400      117.50500
C        229.85500      175.37800      117.69900
O        229.02800      175.85700      118.48200
C        230.89400      173.27400      118.51700
N        230.72300      176.12600      117.01900
C        230.62700      177.57400      117.05400
C        229.29000      178.08900      116.56300
O        228.85600      179.17500      116.95900
N        228.61600      177.32300      115.70300
C        227.30400      177.73500      115.23300
C        226.20500      177.45000      116.23900
O        225.27200      178.24300      116.39300
N        226.29400      176.31800      116.93400
C        225.28400      175.93900      117.91300
C        225.51600      176.70300      119.21100
O        226.59500      176.61400      119.80700
C        225.31600      174.43300      118.15900
N        224.50600      177.45200      119.64800
C        224.56800      178.24600      120.87400
C        223.88700      177.53900      122.03700
O        223.23000      178.17200      122.86800
C        223.95200      179.62300      120.64800
N        224.01400      176.21900      122.10400
C        223.41600      175.42700      123.17100
C        224.42500      174.35500      123.56700
O        225.60400      174.41600      123.20000
C        222.06400      174.84800      122.72500
N        223.96100      173.35400      124.31900
C        224.83800      172.27300      124.75300
C        225.43900      171.50300      123.58500
O        226.40700      170.76100      123.78300
C        224.07600      171.31300      125.66800
N        224.88700      171.65200      122.37800
C        225.48900      171.02200      121.20800
C        226.90200      171.53300      120.96700
O        227.75600      170.79000      120.46800
C        224.61800      171.26200      119.97500
N        227.16600      172.79600      121.30900
C        228.52500      173.31700      121.22300
C        229.46900      172.51700      122.10900
O        230.53400      172.07700      121.66400
C        228.54700      174.79600      121.60700
N        229.08400      172.30700      123.37100
C        229.91200      171.51900      124.27600
C        230.01700      170.07100      123.82000
O        231.05700      169.43400      124.01400
C        229.35300      171.58800      125.69600
N        228.96100      169.54000      123.20300
C        229.00800      168.16900      122.70400
C        230.04100      168.03000      121.59500
O        230.92000      167.16100      121.64900
C        227.62500      167.74400      122.21200
N        229.94800      168.88500      120.57400
C        230.92500      168.84500      119.49200
C        232.32000      169.19300      119.98800
O        233.31200      168.72900      119.41800
C        230.50400      169.78500      118.36300
N        232.42200      169.98000      121.06100
C        233.73100      170.29200      121.62500
C        234.34800      169.06500      122.28300
O        235.52300      168.75200      122.05800
C        233.61100      171.44100      122.62600
N        233.57300      168.36500      123.11200
C        234.05200      167.11800      123.68000
C        234.36500      166.08200      122.62100
O        235.26200      165.25400      122.80000
N        233.63600      166.11500      121.50400
C        233.94100      165.22400      120.39000
C        235.29000      165.57000      119.77000
O        236.18000      164.71600      119.67300
C        232.82900      165.30100      119.34400
N        235.45300      166.82600      119.34200
C        236.70700      167.28300      118.76000
C        237.88800      167.07400      119.69600
O        239.00700      166.86700      119.22100
C        236.60100      168.76100      118.37800
N        237.66200      167.11100      121.01000
C        238.73700      166.84100      121.95800
C        239.33900      165.46100      121.72100
O        240.54100      165.32700      121.46600
C        238.21400      166.97000      123.39100
N        238.51000      164.41700      121.79100
C        239.01100      163.06800      121.55700
C        239.44900      162.87200      120.11000
O        240.37600      162.09700      119.84400
C        237.94700      162.03900      121.93800
N        238.81700      163.57900      119.16900
C        239.17600      163.41800      117.76200
C        240.56400      163.97900      117.47500
O        241.28000      163.46500      116.60800
C        238.12900      164.08400      116.87200
N        240.95600      165.03700      118.18500
C        242.31400      165.55200      118.06800
C        243.28500      164.73800      118.91300
O        244.44600      164.56000      118.52900
C        242.35600      167.02600      118.46900
N        242.82200      164.22700      120.06000
C        243.66800      163.38400      120.89800
C        244.07200      162.11000      120.17000
O        245.17000      161.58400      120.38900
C        242.94800      163.05100      122.20400
N        243.19200      161.59400      119.30800
C        243.56500      160.47600      118.45000
C        244.76500      160.80900      117.57400
O        245.48300      159.89700      117.15100
C        242.38000      160.06000      117.58000
N        244.99400      162.09400      117.29400
C        246.18800      162.56500      116.60400
C        247.17100      163.23700      117.55600
O        247.80800      164.23000      117.18800
C        245.80700      163.52000      115.47400
N        247.28600      162.72000      118.78200
C        248.18500      163.25300      119.80900
C        247.82500      164.68500      120.20000
O        248.70600      165.49200      120.50800
C        249.65100      163.17100      119.37200
N        246.52900      164.99900      120.19500
C        246.01400      166.30100      120.62700
C        246.71600      167.44800      119.90300
O        247.17600      168.41500      120.51300
C        246.12700      166.45700      122.14300
N        246.80000      167.32700      118.57500
C        247.41400      168.38400      117.77800
C        246.65600      169.69600      117.91400
O        247.25800      170.77200      117.82900
C        247.49100      167.96400      116.31100
N        245.34600      169.63000      118.12600
C        244.53300      170.82100      118.36400
C        244.54300      171.21100      119.83900
O        243.49900      171.39300      120.46300
C        243.11200      170.58700      117.86400
N        245.74400      171.34400      120.40600
C        245.86800      171.67600      121.82100
C        245.33100      173.07300      122.10500
O        244.45400      173.25300      122.96000
C        247.32700      171.56000      122.25900
N        245.85200      174.07500      121.39500
C        245.34300      175.43100      121.55300
C        243.88300      175.51600      121.13300
O        243.09800      176.25500      121.73700
C        246.19400      176.41000      120.74600
N        243.49500      174.75100      120.11100
C        242.09700      174.73800      119.69500
C        241.20400      174.15100      120.78100
O        240.12100      174.68100      121.05100
C        241.94200      173.96200      118.38900
N        241.64100      173.06300      121.42000
C        240.85100      172.47600      122.49800
C        240.75000      173.42300      123.68700
O        239.67500      173.57000      124.28400
C        241.45700      171.14200      122.92900
N        241.86200      174.06800      124.04900
C        241.83400      175.02200      125.15300
C        240.90600      176.19000      124.84500
O        240.12500      176.61600      125.70400
C        243.24700      175.51900      125.45600
N        240.96500      176.71200      123.61700
C        240.08700      177.81100      123.23800
C        238.62900      177.37800      123.20200
O        237.74700      178.15900      123.56900
C        240.50700      178.37400      121.88200
N        238.35500      176.14200      122.78000
C        236.98100      175.65200      122.77200
C        236.43500      175.52500      124.18800
O        235.29100      175.90900      124.45300
C        236.90600      174.31000      122.04400
N        237.24100      174.99700      125.11300
C        236.80200      174.91500      126.50200
C        236.60400      176.30400      127.09900
O        235.62900      176.54600      127.82200
C        237.80700      174.11100      127.32700
N        237.51000      177.23700      126.79200
C        237.38500      178.59200      127.31600
C        236.16400      179.30600      126.75200
O        235.53400      180.10100      127.45600
C        238.65200      179.39000      127.01400
N        235.82200      179.04400      125.48900
C        234.62000      179.63300      124.91100
C        233.36700      178.99800      125.49500
O        232.37900      179.69200      125.75600
C        234.64300      179.48700      123.39100
N        233.39000      177.68100      125.71300
C        232.28300      177.02100      126.39100
C        232.13200      177.49500      127.82900
O        231.05200      177.34300      128.41000
C        232.47200      175.50500      126.35500
N        233.19300      178.05700      128.41700
C        233.07800      178.63500      129.75300
C        232.09600      179.80200      129.76600
O        231.41900      180.04000      130.77300
C        234.45100      179.07900      130.25700
N        232.01300      180.55100      128.66200
C        231.01800      181.61600      128.53500
C        230.78000      181.86000      127.04400
O        231.59200      182.52000      126.38900
C        231.47100      182.88200      129.24100
N        229.67200      181.33000      126.52500
C        229.32100      181.48100      125.11500
C        227.84000      181.78500      124.96100
O        227.21000      181.39700      123.97100
C        229.69000      180.23600      124.31100
N        227.26400      182.48200      125.94100
C        225.84100      182.81600      125.97000
C        224.95400      181.58200      125.85000
O        223.79500      181.68200      125.43400
C        225.48200      183.83000      124.87800
N        225.48200      180.41400      126.20800
C        224.77500      179.14100      126.10700
C        224.75900      178.51800      127.49600
O        225.67000      177.77000      127.85500
C        225.44100      178.22200      125.09200
N        223.71800      178.83500      128.27200
C        223.60800      178.30300      129.62500
C        223.69600      176.78500      129.63900
O        224.25100      176.20500      130.57700
C        222.29900      178.76100      130.26900
N        223.17700      176.12900      128.60100
C        223.31400      174.68200      128.49400
C        224.77700      174.28500      128.32800
O        225.31900      173.50800      129.12200
C        222.47100      174.16500      127.32700
N        225.43700      174.82000      127.29800
C        226.84400      174.50100      127.08100
C        227.72700      175.05800      128.18800
O        228.74300      174.44500      128.53300
C        227.30600      175.02800      125.72300
N        227.36700      176.21400      128.75200
C        228.13400      176.74900      129.87100
C        228.04800      175.82800      131.07900
O        229.04800      175.60000      131.76800
C        227.64800      178.15200      130.23000
N        226.85900      175.28500      131.35100
C        226.72400      174.31700      132.43100
C        227.49900      173.04700      132.11900
O        228.14700      172.47300      133.00200
C        225.24800      174.00200      132.67300
N        227.45900      172.60300      130.86200
C        228.19500      171.40500      130.47400
C        229.68900      171.58400      130.70700
O        230.35500      170.69800      131.25200
C        227.91200      171.06600      129.01100
N        230.22900      172.73700      130.31100
C        231.64300      173.01600      130.53800
C        231.95000      173.11600      132.02700
O        232.81500      172.39900      132.54100
C        232.04900      174.29800      129.81200
N        231.23300      173.98600      132.74400
C        231.46600      174.17600      134.17000
C        231.18300      172.92700      134.99600
O        231.48600      172.92000      136.19400
C        230.61400      175.33900      134.68300
N        230.60000      171.88600      134.40500
C        230.36300      170.63800      135.11600
C        231.33500      169.53000      134.73200
O        231.72700      168.73800      135.59400
C        228.92800      170.16000      134.87400
N        231.74000      169.45100      133.46600
C        232.58100      168.36100      132.98700
C        233.77100      168.88900      132.20000
O        234.13800      168.34500      131.15600
C        231.77300      167.38100      132.14000
N        234.38100      169.97700      132.67500
C        235.67700      170.37000      132.13600
C        236.71800      169.28400      132.36900
O        237.61000      169.07900      131.53800
C        236.12600      171.69100      132.76000
N        236.61600      168.57300      133.49400
C        237.53100      167.48000      133.77000
C        237.44000      166.34300      132.77700
O        238.38300      165.55200      132.66600
N        236.32600      166.23800      132.05300
C        236.14000      165.22500      131.02200
C        236.38000      165.75800      129.61800
O        237.01100      165.08000      128.80300
C        234.72900      164.63700      131.10400
N        235.89000      166.96400      129.31800
C        236.07600      167.53100      127.98600
C        237.52800      167.92800      127.75100
O        238.07300      167.69600      126.66500
C        235.15200      168.73300      127.79400
N        238.16900      168.52900      128.75100
C        239.57800      168.88500      128.67000
C        240.49500      167.75200      129.11100
O        241.70400      167.96700      129.24900
C        239.85600      170.13700      129.50400
N        239.95000      166.55500      129.33800
C        240.78400      165.41600      129.70500
C        241.66100      164.98400      128.53800
O        242.87900      164.83200      128.68400
C        239.91000      164.25600      130.18200
N        241.05500      164.78300      127.36500
C        241.81900      164.40400      126.18300
C        242.68200      165.54500      125.66200
O        243.61800      165.29700      124.89500
C        240.87600      163.91800      125.08200
N        242.39000      166.78200      126.05800
C        243.18700      167.91900      125.63200
C        244.59200      167.83700      126.22800
O        244.86300      167.07200      127.15900
C        242.50800      169.22800      126.03200
N        245.49300      168.64500      125.67300
C        246.88600      168.62400      126.09600
C        247.01400      169.02700      127.56100
O        246.15500      169.71700      128.11500
C        247.72300      169.55500      125.22000
N        248.10900      168.58300      128.18600
C        248.31200      168.83500      129.61100
C        248.32100      170.32700      129.91800
O        247.70800      170.76900      130.89700
C        249.61200      168.18100      130.07900
N        249.00600      171.12200      129.09300
C        248.94900      172.57100      129.26000
C        247.55700      173.10300      128.94700
O        247.03900      173.97300      129.66100
C        249.99600      173.24400      128.37400
N        246.93400      172.58700      127.88200
C        245.55600      172.95600      127.58000
C        244.61600      172.50800      128.69000
O        243.68000      173.23100      129.04800
C        245.13200      172.35700      126.23900
N        244.86100      171.32500      129.26000
C        244.03200      170.85300      130.36500
C        244.18100      171.74400      131.59200
O        243.19500      172.03500      132.27300
C        244.38300      169.40600      130.70900
N        245.40000      172.20300      131.88300
C        245.59700      173.07400      133.03900
C        244.95900      174.44100      132.82000
O        244.33100      174.99500      133.73300
C        247.08900      173.21700      133.34100
N        245.11900      175.00900      131.62100
C        244.48000      176.28700      131.32900
C        242.96400      176.16400      131.39100
O        242.27900      177.05900      131.90100
C        244.92500      176.80000      129.96000
N        242.42100      175.04900      130.89600
C        240.98600      174.82500      130.99500
C        240.55800      174.57800      132.43500
O        239.42400      174.88800      132.79700
C        240.57400      173.65500      130.10300
N        241.44700      174.04300      133.27300
C        241.12600      173.89100      134.68800
C        241.04500      175.24700      135.37500
O        240.16000      175.48100      136.20800
C        242.16600      173.00300      135.37000
N        241.96600      176.14900      135.04100
C        241.87300      177.51900      135.53800
C        240.58500      178.18200      135.05900
O        239.87900      178.84000      135.83500
C        243.09500      178.32300      135.09400
N        240.25900      178.00600      133.77600
C        239.01600      178.55300      133.24500
C        237.79800      177.93000      133.91400
O        236.77200      178.59500      134.07700
C        238.95400      178.34600      131.73300
N        237.89600      176.66500      134.32200
C        236.77500      176.00200      134.97600
C        236.59800      176.50400      136.39900
O        235.46800      176.64400      136.87500
C        236.97900      174.48800      134.96200
N        237.70300      176.76500      137.09900
C        237.60600      177.43700      138.39100
C        236.97100      178.81300      138.23500
O        236.11900      179.21100      139.04000
C        238.98800      177.55100      139.03300
N        237.35800      179.54100      137.18500
C        236.75100      180.84200      136.91800
C        235.25700      180.71300      136.64200
O        234.45700      181.52300      137.12000
C        237.45800      181.51700      135.74300
N        234.86300      179.69400      135.87700
C        233.45300      179.51200      135.54500
C        232.64700      179.08800      136.76600
O        231.50700      179.53100      136.94900
C        233.30900      178.48600      134.42100
N        233.21900      178.22600      137.60900
C        232.54500      177.82600      138.83800
C        232.39200      179.00700      139.78500
O        231.39500      179.10600      140.51100
C        233.31000      176.68600      139.50900
N        233.37300      179.91200      139.80000
C        233.17500      181.17300      140.50000
C        232.08500      182.00300      139.83500
O        231.34800      182.72300      140.51800
C        234.48600      181.95600      140.56100
N        231.96200      181.90500      138.50900
C        230.94700      182.62600      137.75200
C        229.58600      181.94400      137.78300
O        228.62400      182.49500      137.23700
C        231.39700      182.79900      136.30000
N        229.48700      180.76700      138.39300
C        228.22100      180.04900      138.49400
C        227.26600      180.82600      139.39100
O        227.47300      180.90700      140.60600
C        228.46300      178.64600      139.03500
N        226.21500      181.39200      138.79900
C        225.29100      182.26300      139.51700
C        223.96800      181.59400      139.86400
O        223.44400      181.81100      140.96100
C        225.01800      183.52800      138.69800
N        223.40900      180.79200      138.96200
C        222.11000      180.17800      139.19100
C        222.24400      178.94100      140.08000
O        223.34100      178.53200      140.47200
C        221.44700      179.82800      137.86200
N        221.09800      178.33400      140.40300
C        221.09400      177.15900      141.27000
C        221.70600      175.95400      140.56800
O        222.57600      175.27300      141.12500
C        219.66800      176.85100      141.72700
N        221.24800      175.66100      139.34800
C        221.90200      174.62800      138.55300
C        223.35200      174.99400      138.27300
O        224.21100      174.11000      138.17900
C        221.14200      174.40500      137.24500
N        223.64400      176.29000      138.15300
C        225.03300      176.72000      138.06500
C        225.78600      176.37300      139.34100
O        226.94200      175.94500      139.28800
C        225.10300      178.21900      137.78000
N        225.13700      176.52600      140.49800
C        225.78200      176.15900      141.75600
C        226.02300      174.65900      141.84600
O        227.05500      174.22700      142.37200
C        224.94100      176.63400      142.94000
N        225.09500      173.85200      141.33000
C        225.30100      172.40700      141.31800
C        226.43700      172.01700      140.38100
O        227.26400      171.16300      140.72100
C        224.00800      171.69500      140.92400
N        226.49600      172.62900      139.19500
C        227.60800      172.37100      138.28700
C        228.93500      172.81000      138.89300
O        229.96000      172.14700      138.69400
C        227.37300      173.07400      136.95100
N        228.93300      173.90900      139.65100
C        230.15100      174.36300      140.31400
C        230.57100      173.39900      141.41400
O        231.76200      173.11600      141.57600
C        229.95000      175.76800      140.88000
N        229.60700      172.88600      142.18100
C        229.92500      171.87800      143.18500
C        230.47500      170.61400      142.53600
O        231.40500      169.99000      143.06000
C        228.68500      171.56100      144.02200
N        229.92100      170.23200      141.38300
C        230.41500      169.05600      140.67300
C        231.84200      169.27100      140.18500
O        232.69500      168.38300      140.30500
C        229.48700      168.72300      139.50400
N        232.11900      170.44900      139.62500
C        233.47400      170.74600      139.17600
C        234.44600      170.77600      140.34700
O        235.57900      170.29600      140.23400
C        233.50300      172.07500      138.42500
N        234.01900      171.32700      141.48500
C        234.89100      171.37800      142.65400
C        235.16200      169.98200      143.19900
O        236.27700      169.69100      143.64500
C        234.27600      172.27000      143.73200
N        234.15800      169.10300      143.16700
C        234.37700      167.72500      143.59100
C        235.32100      167.00200      142.63800
O        236.20200      166.25400      143.07800
C        233.04400      166.98600      143.69100
N        235.15700      167.21800      141.33000
C        236.06800      166.61300      140.36300
C        237.48800      167.13000      140.54800
O        238.45800      166.38700      140.35600
C        235.57900      166.88300      138.94000
N        237.63000      168.40300      140.92100
C        238.95400      168.96600      141.16000
C        239.57700      168.38000      142.42000
O        240.72800      167.93000      142.40300
C        238.86600      170.48800      141.25900
N        238.82800      168.37400      143.52500
C        239.31900      167.78800      144.76600
C        239.59100      166.29700      144.62900
O        240.35400      165.74000      145.42600
C        238.31900      168.03500      145.89500
N        238.98400      165.64100      143.63900
C        239.24800      164.22800      143.40000
C        240.49000      164.03800      142.53600
O        241.43500      163.34700      142.93000
C        238.02800      163.57100      142.74800
N        240.50900      164.65600      141.35500
C        241.59000      164.47100      140.39300
C        242.59700      165.61500      140.40000
O        243.80500      165.37300      140.47700
C        241.01000      164.29700      138.98400
N        242.12900      166.85700      140.32000
C        243.02200      168.01100      140.24000
C        243.64200      168.33000      141.59500
O        244.39400      169.29500      141.73000
C        242.27500      169.22200      139.70300
N        249.39800      172.61600      148.52300
C        248.41300      173.55500      149.04500
C        247.36600      173.88500      147.99000
O        246.27500      174.35100      148.31700
C        249.09200      174.82400      149.53200
N        247.71100      173.65000      146.72000
C        246.74900      173.86100      145.64500
C        245.50600      173.00800      145.84300
O        244.38600      173.47700      145.60800
C        247.39400      173.56000      144.29300
N        245.68100      171.76200      146.28400
C        244.53400      170.95900      146.68700
C        243.81100      171.60300      147.86100
O        242.58000      171.71200      147.85900
C        244.98100      169.54100      147.03800
N        244.56400      172.05400      148.86800
C        243.94900      172.72200      150.01000
C        243.33400      174.05800      149.61800
O        242.29900      174.44300      150.17000
C        244.97600      172.91700      151.12400
N        243.93400      174.76800      148.65900
C        243.35800      176.03000      148.20400
C        242.03500      175.80200      147.48100
O        241.04900      176.51000      147.72700
C        244.34900      176.76400      147.30000
N        241.99600      174.82000      146.57800
C        240.74500      174.49500      145.90300
C        239.69900      174.00300      146.89600
O        238.51200      174.32700      146.77000
C        240.99100      173.45100      144.81400
N        240.12100      173.23300      147.90200
C        239.18000      172.75600      148.90800
C        238.63800      173.90700      149.74300
O        237.46000      173.91000      150.11300
C        239.84700      171.70900      149.79800
N        239.47800      174.89700      150.04400
C        239.00700      176.06500      150.77900
C        238.03100      176.88200      149.94300
O        237.01900      177.36800      150.46000
C        240.19200      176.92300      151.21600
N        238.32000      177.04400      148.64900
C        237.38500      177.73900      147.76900
C        236.05100      177.00500      147.69800
O        234.98300      177.62900      147.73500
C        237.98900      177.89600      146.37500
N        236.09400      175.67300      147.62200
C        234.86300      174.89300      147.57800
C        234.09000      174.99800      148.88800
O        232.86000      175.12000      148.88100
C        235.18100      173.43400      147.25300
N        234.79200      174.95600      150.02300
C        234.12200      175.08200      151.31200
C        233.48300      176.45500      151.46600
O        232.37200      176.57500      151.99700
C        235.11300      174.81700      152.44600
N        234.17000      177.50300      151.00500
C        233.58300      178.83800      151.02300
C        232.35100      178.90400      150.13200
O        231.34400      179.52300      150.49500
C        234.61800      179.87300      150.59000
N        232.41000      178.26900      148.95900
C        231.23000      178.17700      148.10800
C        230.13300      177.32900      148.73700
O        228.97300      177.42700      148.32200
C        231.61100      177.60700      146.74100
N        230.47300      176.50300      149.72600
C        229.52200      175.59700      150.35600
C        228.86700      176.17400      151.60300
O        227.89400      175.59200      152.09400
C        230.21200      174.27400      150.71600
N        229.36700      177.28700      152.12700
C        228.78800      177.88400      153.32300
C        228.23700      179.27400      153.03000
O        227.55600      179.87000      153.86400
C        229.81700      177.94700      154.43500
N        220.55500      177.80000      151.15500
C        220.28500      176.37500      151.31400
C        220.33200      175.64400      149.97500
O        220.86900      174.54400      149.88900
C        218.93800      176.16200      151.98400
N        219.76400      176.26400      148.93700
C        219.75000      175.65300      147.61000
C        221.16600      175.40100      147.10600
O        221.54100      174.25900      146.81200
C        218.97500      176.54100      146.63300
N        221.96600      176.46200      146.98900
C        223.37800      176.28100      146.67500
C        224.07500      175.47300      147.76000
O        224.95100      174.65000      147.46700
C        224.05500      177.63700      146.49200
N        223.68800      175.68700      149.02100
C        224.25200      174.89700      150.10800
C        223.90300      173.42400      149.96400
O        224.73400      172.56500      150.26400
C        223.77100      175.43000      151.45700
N        222.69500      173.10900      149.48900
C        222.33500      171.71100      149.26500
C        223.08900      171.12400      148.08000
O        223.55400      169.97900      148.14100
C        220.82700      171.57600      149.04800
N        223.22000      171.89000      146.99600
C        223.97600      171.41000      145.84500
C        225.44100      171.18500      146.19500
O        226.09500      170.32200      145.59800
C        223.84600      172.39400      144.68400
N        225.97100      171.94400      147.15700
C        227.34200      171.72800      147.60700
C        227.44100      170.59200      148.61900
O        228.42800      169.84800      148.61900
C        227.90700      173.01600      148.20300
N        226.43900      170.43700      149.48500
C        226.39500      169.28400      150.37300
C        226.27400      167.98300      149.59700
O        226.67300      166.93000      150.10500
C        225.23200      169.42000      151.35800
N        225.72300      168.03800      148.38200
C        225.68200      166.86100      147.51900
C        227.07100      166.25700      147.33900
O        227.24900      165.03800      147.43600
C        225.07700      167.23300      146.16400
N        228.07000      167.10000      147.08400
C        229.44700      166.65900      146.91300
C        230.27800      166.79300      148.18300
O        231.46600      166.45500      148.16900
C        230.11300      167.44200      145.77700
N        229.69100      167.31000      149.26500
C        230.40200      167.35800      150.54000
C        230.86300      165.97600      150.98900
O        231.92700      165.84900      151.60600
C        229.51800      167.99000      151.61300
N        230.08100      164.93300      150.69800
C        230.50100      163.58300      151.06100
C        231.72800      163.15600      150.26700
O        232.67600      162.60300      150.83400
C        229.35800      162.59400      150.84900
N        231.72600      163.40300      148.95500
C        232.90700      163.11200      148.15000
C        234.10900      163.91200      148.62600
O        235.24800      163.43700      148.54100
C        232.62300      163.40200      146.67700
N        233.87500      165.12600      149.12600
C        234.95900      165.90900      149.71100
C        235.51200      165.23300      150.95900
O        236.73200      165.11700      151.12000
C        234.47500      167.32200      150.03400
N        234.63200      164.78000      151.85300
C        235.06800      164.04300      153.03200
C        235.45500      162.60400      152.71800
O        236.09300      161.95700      153.55600
C        233.97600      164.06200      154.10400
N        235.08300      162.09000      151.54500
C        235.50400      160.75800      151.10900
C        236.76500      160.88500      150.25400
O        236.73800      160.86100      149.02200
C        234.38200      160.05800      150.35500
N        237.88800      161.03100      150.94700
C        239.18300      161.17400      150.29500
C        240.30600      160.78000      151.24700
O        240.06000      160.20200      152.30600
C        239.37700      162.60100      149.80100
N        244.26900      164.68600      157.98400
C        244.28100      166.14200      158.03500
C        243.65700      166.73300      156.77800
O        243.17000      167.86300      156.78600
C        245.69800      166.65500      158.21200
N        243.67300      165.95500      155.69600
C        243.11800      166.40100      154.42600
C        241.59600      166.42300      154.41300
O        241.01000      166.77300      153.38400
C        243.62600      165.51100      153.28900
N        240.94300      166.05400      155.51800
C        239.48900      166.06900      155.57900
C        238.92900      166.59000      156.89500
O        237.70700      166.55500      157.07400
C        238.93000      164.66100      155.31500
N        239.76800      167.06400      157.82000
C        239.25200      167.59600      159.07700
C        238.38600      168.82400      158.83700
O        237.33100      168.98400      159.46400
C        240.40700      167.92800      160.02200
N        238.81200      169.70100      157.92600
C        237.99100      170.85300      157.57400
C        236.69500      170.41400      156.90800
O        235.63700      171.01100      157.13600
C        238.77200      171.79700      156.66200
N        236.75600      169.36100      156.09100
C        235.54800      168.86500      155.44000
C        234.57300      168.28500      156.45500
O        233.36200      168.51600      156.36200
C        235.90900      167.82200      154.38300
N        235.08000      167.53200      157.43500
C        234.20800      166.99600      158.47500
C        233.63200      168.11300      159.33500
O        232.47100      168.04500      159.75700
C        234.97000      165.98900      159.33400
N        234.42500      169.15400      159.59900
C        233.90300      170.30500      160.32400
C        232.78400      170.98100      159.54200
O        231.74600      171.33700      160.11100
C        235.02900      171.29400      160.62100
N        232.97000      171.14900      158.23200
C        231.93300      171.76400      157.40800
C        230.68200      170.89700      157.35300
O        229.56000      171.41500      157.33600
C        232.46700      172.02300      156.00000
N        230.85700      169.57600      157.32000
C        229.71200      168.67400      157.31800
C        228.94000      168.76800      158.62800
O        227.70500      168.83500      158.63000
C        230.17600      167.24000      157.06700
N        229.65400      168.77400      159.75600
C        228.99600      168.91000      161.05000
C        228.42300      170.30400      161.25700
O        227.55800      170.48400      162.11900
C        229.97300      168.57300      162.17700
N        228.88900      171.29200      160.49400
C        228.37800      172.65000      160.64000
C        227.11700      172.87100      159.81400
O        226.08700      173.29900      160.34700
C        229.45900      173.65800      160.24600
N        227.18200      172.59100      158.50900
C        226.03700      172.83800      157.63700
C        224.81800      172.04300      158.08500
O        223.68400      172.53200      158.00900
C        226.39500      172.50000      156.19000
N        225.03000      170.81400      158.56000
C        223.93200      170.03200      159.11200
C        223.47300      170.56100      160.46300
O        222.41900      170.14100      160.95300
C        224.34100      168.56300      159.23700
N        224.23400      171.46400      161.07300
C        223.86200      172.03700      162.36100
C        223.54500      173.52300      162.22300
O        222.80700      174.08800      163.03100
C        224.97100      171.82200      163.37900
N        216.51500      173.13100      154.62700
C        216.51600      171.94000      153.78800
C        217.93900      171.49100      153.48500
O        218.18800      170.30600      153.26100
C        215.75500      172.19700      152.49600
N        218.86800      172.44900      153.47300
C        220.26900      172.12300      153.22800
C        220.78400      171.12600      154.25600
O        221.67700      170.32200      153.96700
C        221.11600      173.39500      153.23800
N        220.22100      171.15900      155.46700
C        220.62500      170.21400      156.50100
C        220.24000      168.78500      156.14200
O        220.93300      167.84400      156.54100
C        220.01000      170.60600      157.84300
N        219.15900      168.60000      155.38100
C        218.73300      167.25300      155.01200
C        219.76500      166.57300      154.12200
O        220.29300      165.50800      154.46600
C        217.37200      167.30200      154.32000
N        220.06000      167.17100      152.96500
C        221.10400      166.62900      152.10300
C        222.46000      166.65700      152.79300
O        223.31400      165.80200      152.52300
C        221.15600      167.40400      150.78600
N        222.67000      167.61600      153.69800
C        223.90900      167.65300      154.46400
C        224.08300      166.38400      155.28500
O        225.14000      165.75300      155.24200
C        223.93200      168.88500      155.36700
N        223.04900      165.98500      156.02900
C        223.13700      164.76400      156.82400
C        223.13700      163.52100      155.94400
O        223.74700      162.50700      156.30400
C        221.98700      164.70500      157.82900
N        222.46000      163.57700      154.79500
C        222.53600      162.47400      153.84200
C        223.97900      162.22300      153.42300
O        224.46000      161.08400      153.44700
C        221.65900      162.76900      152.62400
N        224.68900      163.28700      153.04300
C        226.10700      163.15900      152.72900
C        226.92700      162.82300      153.96800
O        227.95400      162.14100      153.87000
C        226.61300      164.44900      152.08700
N        226.48900      163.28600      155.13900
C        227.21600      163.03000      156.37300
C        227.13100      161.57400      156.79400
O        227.98500      161.11700      157.55000
C        226.69400      163.92900      157.49500
N        226.12400      160.84200      156.32600
C        226.11400      159.39700      156.53100
C        227.37000      158.76500      155.93900
O        228.13600      158.08300      156.63500
C        224.85600      158.78700      155.91300
N        227.60300      158.99900      154.64600
C        228.80000      158.47900      153.99900
C        230.06500      159.10000      154.57500
O        231.09700      158.42700      154.66800
C        228.72800      158.72200      152.49200
N        230.00800      160.37600      154.96200
C        231.17000      161.00700      155.57700
C        231.53000      160.33100      156.89500
O        232.70900      160.11900      157.18900
C        230.90900      162.49700      155.79000
N        230.52300      159.97100      157.69200
C        230.76500      159.29200      158.95700
C        231.27300      157.88000      158.72800
O        232.13100      157.39400      159.47200
C        229.48600      159.27200      159.79400
N        230.74600      157.20300      157.70700
C        231.28300      155.89600      157.34400
C        232.76400      155.99700      157.00000
O        233.59500      155.25600      157.54200
C        230.49200      155.31200      156.17400
N        233.11500      156.93500      156.11700
C        234.50600      157.09600      155.70900
C        235.38900      157.53200      156.87000
O        236.56000      157.14800      156.93400
C        234.60400      158.10100      154.56100
N        234.85200      158.32600      157.79500
C        235.63500      158.74600      158.95000
C        235.90200      157.57300      159.88100
O        237.05900      157.26100      160.18600
C        234.91600      159.87300      159.68900
N        234.84100      156.90200      160.33500
C        235.00300      155.73500      161.19200
C        235.85100      154.65400      160.53700
O        236.43700      153.82800      161.24600
C        233.63500      155.16900      161.57400
N        235.93800      154.63900      159.20600
C        236.80800      153.68800      158.53000
C        238.23500      154.19300      158.35700
O        239.15700      153.37900      158.23700
C        236.23100      153.32800      157.16000
N        238.44700      155.51000      158.34200
C        239.74800      156.07000      158.00000
C        240.30700      157.05500      159.01700
O        241.53000      157.14400      159.14600
C        239.68400      156.76700      156.63200
N        239.46200      157.79800      159.73000
C        239.95800      158.84700      160.61200
C        240.80800      158.26400      161.73600
O        240.66600      157.09900      162.11600
C        238.79600      159.64700      161.20100
N        241.70700      159.09300      162.26200
C        242.55600      158.69500      163.37500
C        241.83300      158.92200      164.69500
O        241.19600      159.96000      164.89600
C        243.87000      159.47600      163.35600
N        241.95000      157.94400      165.60000
C        241.17300      157.95700      166.83700
C        241.36800      159.25000      167.61800
O        240.40900      159.79700      168.17800
C        241.54700      156.75200      167.70100
N        242.60200      159.75600      167.66400
C        242.86700      161.02100      168.34100
C        242.07800      162.15300      167.69600
O        241.31300      162.85800      168.36300
C        244.36600      161.32100      168.32300
N        242.24900      162.33600      166.38600
C        241.46100      163.32600      165.66400
C        239.99400      162.93500      165.57100
O        239.14400      163.81100      165.37600
C        242.03300      163.53700      164.26300
N        239.67900      161.64400      165.70100
C        238.28600      161.21200      165.66400
C        237.52200      161.73700      166.87100
O        236.57100      162.50700      166.72400
C        238.20300      159.68600      165.59800
N        237.97000      161.36700      168.07600
C        237.21600      161.57800      169.31200
C        236.48500      162.91600      169.37100
O        235.27800      162.96600      169.63200
C        238.16200      161.44400      170.50700
N        237.19700      164.01200      169.10900
C        236.60200      165.33900      169.23800
C        235.45200      165.53200      168.25500
O        234.32500      165.85500      168.65000
C        237.67400      166.41100      169.03600
N        235.72700      165.35300      166.95900
C        234.69600      165.55800      165.94700
C        233.56300      164.55400      166.09300
O        232.40100      164.88900      165.84400
C        235.30700      165.47100      164.55000
N        233.88000      163.32800      166.50500
C        232.85400      162.32000      166.73100
C        231.91000      162.74700      167.84500
O        230.68700      162.67800      167.69600
C        233.50500      160.97700      167.06000
N        232.46300      163.20000      168.97200
C        231.62200      163.64500      170.07600
C        230.81200      164.87500      169.69100
O        229.63700      164.99000      170.06000
C        232.47900      163.92800      171.30800
N        231.41700      165.79900      168.94300
C        230.69300      166.99200      168.51400
C        229.52300      166.62600      167.61100
O        228.39600      167.09900      167.80600
C        231.64400      167.95600      167.80500
N        229.77000      165.76500      166.62000
C        228.71000      165.35200      165.71000
C        227.64900      164.52700      166.42300
O        226.46700      164.61800      166.07800
C        229.30100      164.56900      164.53900
N        228.04000      163.73500      167.42300
C        227.06200      162.95800      168.17500
C        226.16500      163.86300      169.00600
O        224.94100      163.68200      169.03000
C        227.77400      161.94200      169.06600
N        226.75300      164.84700      169.68800
C        225.95600      165.80100      170.44800
C        225.03900      166.59900      169.53100
O        223.89700      166.90600      169.89000
C        226.87100      166.73000      171.24400
N        225.52000      166.94100      168.33300
C        224.69700      167.71200      167.40800
C        223.53100      166.88700      166.87400
O        222.37500      167.32100      166.93100
C        225.55400      168.23800      166.25700
N        223.81400      165.69100      166.35200
C        222.76900      164.88000      165.73600
C        221.77300      164.37300      166.77000
O        220.56800      164.31600      166.49800
C        223.39200      163.71100      164.97500
N        222.25200      164.00100      167.96000
C        221.35600      163.48300      168.98700
C        220.33900      164.51900      169.44600
O        219.32700      164.15000      170.05100
C        222.16700      162.97400      170.18000
N        220.57800      165.79700      169.17300
C        219.66600      166.85600      169.58600
C        218.31900      166.73700      168.88300
O        217.31800      167.28400      169.34500
C        220.28100      168.21500      169.31800
N        214.49400      160.86100      158.63300
C        215.61200      161.34400      157.83200
C        216.83500      161.60000      158.70600
O        217.86600      160.94300      158.55600
C        215.22000      162.60700      157.08300
N        216.71000      162.56500      159.62000
C        217.81700      162.88100      160.51600
C        218.12900      161.71200      161.44000
O        219.30000      161.37200      161.65400
C        217.49300      164.13600      161.32400
N        217.09500      161.08300      161.99700
C        217.31600      159.89600      162.81400
C        217.88700      158.75800      161.97800
O        218.66500      157.93800      162.47900
C        216.01300      159.47100      163.48800
N        217.52000      158.69700      160.69700
C        218.08500      157.67700      159.82100
C        219.58200      157.88600      159.63700
O        220.36400      156.92900      159.69200
C        217.36700      157.68900      158.47400
N        219.99800      159.13600      159.42100
C        221.42300      159.43300      159.33600
C        222.12000      159.13900      160.65600
O        223.26400      158.67200      160.67200
C        221.63600      160.89000      158.92900
N        221.44500      159.40800      161.77700
C        222.02100      159.08700      163.07700
C        222.27000      157.59000      163.21200
O        223.33600      157.16600      163.67200
C        221.10300      159.58300      164.19400
N        221.29400      156.77600      162.80900
C        221.45600      155.32900      162.88700
C        222.55800      154.84800      161.95400
O        223.33100      153.94700      162.30500
C        220.13700      154.63600      162.55800
N        222.63600      155.42600      160.75300
C        223.71000      155.06900      159.83300
C        225.07200      155.38700      160.43400
O        226.00000      154.57100      160.36500
C        223.52600      155.80000      158.50300
N        225.20400      156.56600      161.04300
C        226.47400      156.95300      161.64300
C        226.81300      156.06800      162.83300
O        227.98500      155.76200      163.07000
C        226.43100      158.42300      162.05700
N        225.80200      155.64300      163.59300
C        226.05600      154.72600      164.69900
C        226.55300      153.37900      164.19100
O        227.55300      152.84600      164.69100
C        224.79100      154.55100      165.53700
N        225.86500      152.81500      163.19700
C        226.30900      151.55700      162.62100
C        227.70300      151.64500      162.03000
O        228.46500      150.67600      162.06500
N        228.05600      152.80800      161.47900
C        229.39700      152.98100      160.93300
C        230.43900      153.09100      162.04000
O        231.44700      152.37700      162.02300
C        229.44100      154.21200      160.03000
N        230.21100      153.98000      163.01200
C        231.14200      154.15400      164.12000
C        231.23900      152.91200      164.98900
O        232.12800      152.83200      165.84500
C        230.72500      155.35300      164.97400
N        230.34200      151.94500      164.79500
C        230.49600      150.64100      165.42600
C        231.79200      149.97100      164.98100
O        232.20800      148.96500      165.56500
C        229.29500      149.74800      165.10700
N        232.43800      150.52100      163.94700
C        233.74100      150.01500      163.52900
C        234.81200      150.28000      164.57800
O        235.89300      149.68300      164.52100
C        234.14400      150.63300      162.19100
N        234.54600      151.17500      165.52700
C        235.44800      151.35700      166.65600
C        235.49900      150.07900      167.48200
O        234.48300      149.39900      167.65600
C        234.99400      152.53200      167.52000
N        236.69000      149.74900      167.98500
C        236.86800      148.49500      168.71100
C        235.98100      148.44200      169.94900
O        235.19900      147.50200      170.12600
N        236.09000      149.44500      170.81700
C        235.26000      149.52000      172.01500
C        235.25500      150.95700      172.50500
O        236.30200      151.48000      172.89800
C        235.77100      148.58100      173.10800
N        234.08400      151.58900      172.48400
C        233.93000      152.97500      172.91200
C        232.74800      153.05600      173.86700
O        231.60000      152.85400      173.45700
C        233.73100      153.90600      171.71600
N        233.02900      153.34400      175.13900
C        231.95000      153.55600      176.09600
C        231.07400      154.73100      175.68800
O        229.87900      154.75300      176.00200
C        232.52300      153.77500      177.49600
N        231.64700      155.71600      174.99100
C        230.84000      156.80400      174.45000
C        229.84900      156.28500      173.41900
O        228.71700      156.77500      173.33400
C        231.73900      157.87900      173.83900
N        230.25400      155.29000      172.62400
C        229.31300      154.65300      171.71000
C        228.20200      153.95200      172.47700
O        227.04100      153.96700      172.05400
C        230.04300      153.66900      170.79700
N        228.53700      153.34600      173.61900
C        227.51600      152.71800      174.45100
C        226.53900      153.75000      174.99600
O        225.32600      153.51300      175.03300
C        228.17400      151.94500      175.59300
N        227.05000      154.90600      175.42100
C        226.17600      155.96700      175.90800
C        225.28600      156.50000      174.79400
O        224.09500      156.75700      175.01000
C        227.01000      157.09300      176.51500
N        225.84600      156.67100      173.59500
C        225.04800      157.12700      172.46300
C        223.96700      156.11600      172.11400
O        222.83400      156.49300      171.79900
C        225.94600      157.38700      171.25500
N        224.29600      154.82500      172.17600
C        223.30600      153.79600      171.88300
C        222.21400      153.76500      172.94200
O        221.03500      153.59800      172.61800
C        223.98400      152.43200      171.76800
N        222.58300      153.93400      174.21200
C        221.57700      153.97600      175.26700
C        220.65600      155.17500      175.09600
O        219.43400      155.05900      175.25300
C        222.25100      154.00600      176.63700
N        221.22500      156.33700      174.76600
C        220.40600      157.52400      174.54500
C        219.48900      157.34500      173.34400
O        218.30900      157.70700      173.39600
C        221.29700      158.75100      174.36200
N        220.00900      156.77800      172.25400
C        219.18900      156.57300      171.06600
C        218.09500      155.54700      171.32000
O        216.99400      155.66400      170.77700
C        220.06500      156.14800      169.89000
N        218.36800      154.54100      172.15200
C        217.34000      153.56000      172.47400
C        216.25600      154.17100      173.35100
O        215.06200      153.93900      173.12400
C        217.96600      152.34800      173.15800
N        216.64900      154.95600      174.35700
C        215.65900      155.65900      175.16500
C        214.86400      156.64500      174.31900
O        213.69000      156.91200      174.59800
C        216.34100      156.37300      176.33000
N        215.49100      157.20000      173.28000
C        214.76700      158.05500      172.34700
C        213.73900      157.25200      171.56500
O        212.55200      157.59000      171.54600
C        215.74800      158.74200      171.39900
N        214.18600      156.17000      170.92200
C        213.28900      155.29800      170.17000
C        212.15200      154.78400      171.04200
O        211.08200      154.42800      170.53500
C        214.07600      154.13100      169.57800
N        212.37200      154.72600      172.35700
C        211.29000      154.38100      173.27000
C        210.14900      155.38700      173.17800
O        208.97700      155.00100      173.11700
C        211.81900      154.29200      174.70000
N        210.47000      156.68500      173.16200
C        209.46200      157.74300      173.04800
C        209.88900      158.70200      171.93800
O        210.47200      159.75800      172.19300
C        209.27000      158.45700      174.37900
N        209.58500      158.32300      170.69900
C        209.84700      159.14400      169.52500
C        209.09100      158.56500      168.33900
O        208.26700      157.66000      168.50800
C        211.34300      159.22200      169.21800
N        209.35900      159.07900      167.14400
C        208.81400      158.47500      165.94000
C        209.20300      157.00200      165.86500
O        210.26700      156.58900      166.33400
C        209.30600      159.21800      164.69900
N        208.31200      156.20300      165.27800
C        208.54200      154.76500      165.20900
C        209.77600      154.42800      164.38500
O        210.41700      153.39700      164.62400
C        207.31300      154.06900      164.63100
N        210.11800      155.27400      163.41000
C        211.30600      155.02600      162.60200
C        212.56000      154.96900      163.46000
O        213.52300      154.28000      163.10600
C        211.44600      156.10000      161.52600
N        212.56300      155.67300      164.59400
C        213.68600      155.58200      165.51900
C        213.87800      154.15000      165.99700
O        214.97400      153.58800      165.89000
C        213.46800      156.52000      166.70400
N        212.81300      153.54100      166.52000
C        212.90000      152.15900      166.97300
C        213.20400      151.21800      165.81900
O        213.95100      150.24800      165.98200
C        211.60100      151.75300      167.66600
N        212.62300      151.48100      164.64900
C        212.89400      150.64800      163.48300
C        214.38500      150.61100      163.17700
O        214.99700      149.53900      163.11300
C        212.10600      151.16300      162.27900
N        214.99000      151.78700      163.00100
C        216.41200      151.85300      162.68600
C        217.26200      151.31600      163.83100
O        218.30300      150.69200      163.59400
C        216.80500      153.28900      162.34900
N        216.83400      151.53400      165.07600
C        217.60100      151.04200      166.21500
C        217.64700      149.52100      166.22500
O        218.72300      148.91900      166.30700
C        217.00400      151.57400      167.51600
N        216.48400      148.87900      166.13800
C        216.45600      147.42300      166.12300
C        217.11000      146.86500      164.86700
O        217.63800      145.74800      164.89300
C        215.01900      146.92500      166.24600
N        217.09300      147.61600      163.76500
C        217.80000      147.17500      162.57000
C        219.30200      147.14200      162.81600
O        219.95400      146.10500      162.64700
C        217.46500      148.09300      161.39600
O        218.30400      149.23400      161.39800
N        219.86800      148.27600      163.22800
C        221.29400      148.36300      163.51000
C        221.69600      147.62000      164.77300
O        222.88300      147.62900      165.11800
C        221.71700      149.82800      163.61400
N        220.74500      147.01100      165.48500
C        221.10600      146.12700      166.58700
C        222.05900      145.02500      166.15000
O        222.82600      144.52100      166.97600
C        219.85100      145.51300      167.20600
N        222.04200      144.65100      164.86900
C        223.02300      143.69900      164.36300
C        224.43700      144.24600      164.50800
O        225.31400      143.59100      165.08200
C        222.72100      143.36100      162.90300
N        224.67700      145.45400      163.99400
C        225.99200      146.06600      164.14400
C        226.30700      146.35800      165.60300
O        227.47700      146.35200      166.00000
C        226.07500      147.34800      163.31700
N        225.28100      146.61700      166.41300
C        225.50200      146.84900      167.83700
C        226.04000      145.59600      168.51500
O        227.01400      145.65700      169.27500
C        224.20500      147.30800      168.50200
N        225.41300      144.44800      168.25100
C        225.92600      143.18400      168.76600
C        227.27800      142.84700      168.15700
O        228.10700      142.19800      168.80400
C        224.92700      142.05900      168.49800
N        227.51600      143.27300      166.91700
C        228.82600      143.07700      166.31000
C        229.89300      143.91300      167.00300
O        231.06700      143.52500      167.02500
C        228.76900      143.41500      164.82100
N        229.50800      145.05500      167.57400
C        230.47800      145.91900      168.23700
C        230.93500      145.32000      169.56000
O        232.13600      145.14400      169.79300
C        229.87900      147.30900      168.45500
N        229.99300      145.00300      170.43700
C        230.30800      144.44400      171.74500
C        229.52700      143.18200      172.06400
O        230.01000      142.33800      172.82200
C        230.05200      145.49100      172.83900
N        228.33400      143.02600      171.50100
C        227.46000      141.93600      171.87700
C        226.23500      142.45200      172.59800
O        226.28600      142.76100      173.79100
N        225.11900      142.54900      171.87600
C        223.90900      143.13700      172.42500
C        223.29600      142.28600      173.52500
O        222.38100      142.74500      174.21600
C        222.89600      143.39000      171.28800
C        222.00100      144.58700      171.61700
C        222.07900      142.14500      171.01300
C        222.75000      145.89400      171.71600
N        223.77900      141.05600      173.70800
C        223.28600      140.22900      174.80200
C        223.58400      140.86100      176.15500
O        222.82000      140.67400      177.10800
C        223.89500      138.83000      174.72000
N        224.68600      141.60300      176.25900
C        224.96600      142.34900      177.48000
C        223.89000      143.39800      177.72700
O        223.20300      143.38100      178.75300
C        226.34500      143.00000      177.38300
C        227.38700      142.13500      176.70200
C        228.40600      142.95200      175.93100
O        228.44000      144.17800      176.03200
N        229.23400      142.27500      175.14700
N        223.72600      144.31300      176.78100
C        222.77300      145.41700      176.81000
C        221.34500      144.97000      176.61500
O        220.46800      145.83000      176.47800
C        223.13700      146.44600      175.73800
C        224.61700      146.78100      175.52600
C        225.26900      145.86400      174.49700
C        224.77200      148.23400      175.11200
N        221.11400      143.65700      176.59000
C        219.77500      143.12300      176.37700
C        218.77500      143.72900      177.35200
O        217.79300      144.36100      176.94800
C        219.81000      141.60400      176.51400
O        220.63900      141.22400      177.59800
N        219.02400      143.55700      178.65200
C        218.12400      144.09200      179.66600
C        217.93000      145.59300      179.52900
O        216.95400      146.13100      180.06100
C        218.64900      143.76400      181.06400
N        218.83300      146.27900      178.82900
C        218.66400      147.71000      178.61300
C        217.59600      147.98300      177.56300
O        216.75500      148.87200      177.73300
C        219.99600      148.33900      178.20300
O        220.37600      147.92600      176.90300
N        217.61100      147.22400      176.46700
C        216.67600      147.49100      175.38200
C        215.33700      146.80900      175.59900
O        214.32500      147.26200      175.05500
C        217.27300      147.04300      174.05100
C        217.59400      145.55400      173.96000
C        216.60000      144.84600      173.05800
C        219.01300      145.34500      173.46900
N        215.31400      145.72900      176.37600
C        214.08200      144.97700      176.60300
C        212.89400      145.84600      176.99100
O        211.81600      145.66300      176.40400
C        214.32600      143.90100      177.66800
C        213.07000      143.14700      178.09900
C        213.32100      141.65200      178.06800
C        212.61300      143.59200      179.48000
N        212.99800      146.78100      177.94300
C        211.80900      147.58300      178.28100
C        211.23600      148.32100      177.08800
O        210.04200      148.18000      176.78900
C        212.33400      148.54300      179.35500
C        213.51000      147.85200      179.92900
C        214.14800      147.14200      178.78700
N        212.06300      149.09900      176.38800
C        211.63200      149.74900      175.15900
C        210.86500      148.77600      174.27500
O        209.71000      149.02200      173.90800
C        212.84500      150.31500      174.41700
N        211.49200      147.63500      173.98000
C        210.85600      146.61000      173.15600
C        209.42500      146.37700      173.61300
O        208.47500      146.52400      172.83600
C        211.66600      145.30500      173.19600
C        213.01300      145.49700      172.50900
C        210.89200      144.19400      172.52800
C        212.89900      145.92500      171.07300
N        209.24500      146.06600      174.89800
C        207.91300      145.68000      175.34700
C        206.94900      146.85000      175.20400
O        205.80900      146.67600      174.75400
C        207.94900      145.11200      176.78100
C        209.14300      144.19500      176.95500
C        207.93700      146.20100      177.83900
N        207.40100      148.06700      175.51100
C        206.48000      149.18300      175.36800
C        206.27800      149.54500      173.90900
O        205.25900      150.15300      173.56800
C        206.95700      150.39500      176.16700
C        208.34200      150.89200      175.83000
C        208.36700      151.77200      174.59800
O        207.31900      152.36100      174.26400
O        209.43600      151.87500      173.96500
N        207.22100      149.17500      173.04300
C        206.98700      149.32200      171.61400
C        206.01200      148.26900      171.11700
O        205.39400      148.43400      170.06200
C        208.30600      149.23800      170.85500
C        209.25300      150.41700      171.04900
C        210.69100      149.98200      170.83300
C        208.88000      151.55800      170.12000
N        205.86900      147.17300      171.85900
C        204.91300      146.14900      171.47300
C        203.50600      146.45800      171.94900
O        202.57400      145.74100      171.57300
C        205.35000      144.79300      172.01600
N        203.32800      147.49100      172.76400
C        202.03900      147.79000      173.37100
C        201.70400      149.26400      173.23300
O        201.29500      149.91800      174.19500
C        202.01900      147.37900      174.84000
C        202.58100      146.00200      175.11100
C        203.33100      145.94000      176.42200
O        203.07600      146.79700      177.29100
O        204.18200      145.04200      176.58300
N        201.87100      149.81600      172.03800
C        201.51600      151.20200      171.79600
C        200.17500      151.27300      171.07100
O        199.55900      150.25800      170.74300
C        202.62000      151.91500      171.01500
C        202.41400      151.85200      169.52100
O        202.12000      150.76000      168.99900
O        202.53100      152.90500      168.86700
N        199.72100      152.49700      170.81200
C        198.39800      152.68700      170.23100
C        198.39700      152.40700      168.73400
O        197.68000      151.52200      168.25900
C        197.90400      154.10600      170.51200
N        199.19000      153.15800      167.97600
C        199.19000      153.03100      166.52400
C        199.64600      151.63400      166.13800
O        200.81200      151.28000      166.32700
C        200.09000      154.08900      165.90000
C        199.67000      155.50600      166.21100
C        200.33700      156.48600      165.26900
C        200.25500      157.89800      165.80800
N        201.09200      158.05800      167.02600
N        198.72700      150.84300      165.58800
C        199.03400      149.45500      165.28300
C        200.14000      149.31400      164.25200
O        200.72800      148.23600      164.14000
C        197.78300      148.74000      164.79500
C        197.34600      149.19600      163.47100
C        196.50700      150.22600      163.20000
C        197.72300      148.64100      162.21500
N        196.33300      150.34800      161.84700
C        197.07300      149.38300      161.22000
C        198.55000      147.58800      161.83400
C        197.22600      149.10800      159.87100
C        198.69800      147.31600      160.49800
C        198.04000      148.06900      159.53200
N        200.43500      150.36600      163.49100
C        201.58500      150.31200      162.59800
C        202.86400      150.04900      163.37800
O        203.71600      149.25800      162.95300
C        201.70300      151.61800      161.81700
C        200.53300      151.91400      160.91200
C        200.68900      151.18800      159.59600
N        199.47300      151.24400      158.79600
C        199.31200      150.60200      157.64600
N        200.28900      149.85300      157.16300
N        198.17100      150.70400      156.98400
N        203.00900      150.69900      164.52900
C        204.22600      150.55400      165.31500
C        204.33600      149.14300      165.86500
O        205.39500      148.50900      165.78600
C        204.25500      151.59800      166.44100
C        205.64300      151.69000      167.02400
C        203.80700      152.94100      165.91400
N        203.25500      148.64200      166.45700
C        203.26500      147.27200      166.94500
C        203.55300      146.30000      165.81500
O        204.24100      145.29500      166.01100
C        201.93500      146.94600      167.61100
C        201.70200      147.68800      168.90200
C        200.35200      147.34800      169.48300
N        199.26900      147.74200      168.59200
C        198.00600      147.36500      168.74600
N        197.66900      146.57500      169.75100
N        197.08200      147.76900      167.88900
N        203.06100      146.59800      164.61600
C        203.31400      145.72400      163.47900
C        204.79500      145.69600      163.13300
O        205.37300      144.62500      162.91400
C        202.49000      146.18100      162.28200
C        202.91600      145.60500      160.93900
C        202.76000      144.11100      160.94100
C        202.09400      146.21800      159.83200
N        205.42300      146.86800      163.06900
C        206.85400      146.91100      162.79000
C        207.64000      146.16900      163.86100
O        208.59300      145.43600      163.55800
C        207.32300      148.35800      162.68300
N        207.24900      146.34400      165.12200
C        207.93000      145.65800      166.21100
C        207.81300      144.15500      166.04200
O        208.78600      143.41600      166.23100
C        207.36800      146.12100      167.56400
C        207.88200      147.51900      167.87700
C        207.75000      145.15900      168.66100
C        209.36100      147.68100      167.62400
N        206.62400      143.67900      165.68200
C        206.45300      142.25600      165.42200
C        207.38400      141.81200      164.31100
O        208.05700      140.78200      164.41900
C        204.99000      141.94500      165.07400
C        204.09800      142.20800      166.27900
C        204.85700      140.51400      164.62600
C        202.66200      141.82100      166.06200
N        207.44100      142.58400      163.22900
C        208.28300      142.20500      162.10100
C        209.73700      142.06800      162.52400
O        210.45500      141.18900      162.03700
C        208.14600      143.22900      160.97900
C        209.03600      142.96000      159.78500
C        210.33800      143.72500      159.85400
O        210.53400      144.47100      160.83500
O        211.16200      143.58400      158.92800
N        210.18800      142.93000      163.42900
C        211.57400      142.84400      163.87400
C        211.78900      141.73700      164.89400
O        212.90600      141.22600      165.01600
C        212.02600      144.17600      164.46000
C        212.64800      145.08000      163.43600
C        213.41300      144.55900      162.40700
C        212.46300      146.45100      163.48700
C        213.98300      145.37900      161.46100
C        213.02700      147.27900      162.54600
C        213.78800      146.74000      161.53500
O        214.35500      147.56500      160.59200
N        210.74000      141.36100      165.62200
C        210.86000      140.41100      166.72900
C        211.63000      139.13700      166.39800
O        212.54800      138.79300      167.15800
C        209.45400      140.08100      167.24400
C        209.34800      138.75900      167.96800
S        210.30700      138.71700      169.48500
C        209.95700      137.05300      170.05200
N        211.32900      138.39700      165.32600
C        212.02000      137.11300      165.14600
C        213.49800      137.27400      164.87200
O        214.29900      136.43400      165.30300
C        211.28500      136.49100      163.95500
C        210.86100      137.65300      163.16400
C        210.48200      138.70900      164.16400
N        213.88200      138.33100      164.15600
C        215.29400      138.59400      163.91400
C        216.06400      138.63000      165.22400
O        216.98900      137.84300      165.43900
C        215.45600      139.91000      163.15000
C        216.86700      140.49100      163.03600
C        217.09600      141.02400      161.63900
C        217.08700      141.59800      164.05300
N        215.67200      139.52700      166.12600
C        216.38800      139.65100      167.38700
C        216.21600      138.41400      168.25600
O        217.12700      138.06000      169.01000
C        215.92100      140.89900      168.13300
C        214.53500      140.84800      168.77200
C        214.64300      140.60900      170.26900
C        213.76700      142.12100      168.48100
N        215.06600      137.74600      168.16800
C        214.83600      136.57000      168.99800
C        215.80000      135.45200      168.63000
O        216.61000      135.01500      169.45400
C        213.38600      136.10700      168.85900
N        215.73400      134.98300      167.38300
C        216.69500      134.00000      166.92000
C        218.12200      134.49600      166.95700
O        219.05500      133.68700      166.96300
N        218.31200      135.81300      166.97800
C        219.63800      136.38600      167.13600
C        220.14100      136.24600      168.56400
O        221.35000      136.11400      168.78300
C        219.60500      137.85800      166.72200
C        220.81800      138.66400      167.12100
C        222.04400      138.29100      166.32600
O        222.74200      137.33300      166.65200
N        222.31900      139.05300      165.27500
N        219.23600      136.24700      169.54100
C        219.61300      136.31700      170.94500
C        219.19700      135.08200      171.73200
O        218.88100      135.18700      172.92000
C        219.02200      137.57100      171.57600
C        219.62100      138.85100      171.00600
C        219.20800      140.04300      171.84200
C        221.12900      138.72600      170.93600
N        219.19000      133.91500      171.09600
C        218.98900      132.67600      171.81900
C        217.57400      132.44300      172.30100
O        216.74400      133.35600      172.30200
N        217.29400      131.21300      172.73100
C        215.92900      130.83900      173.08500
C        215.56300      131.38300      174.45900
O        214.64000      132.19200      174.59900
C        215.76200      129.31100      173.03400
C        214.35800      128.91800      173.46100
C        216.08000      128.78900      171.64500
N        216.28900      130.94900      175.49100
C        215.88600      131.25000      176.86100
C        215.80200      132.74700      177.10900
O        214.95600      133.20100      177.88900
C        216.85700      130.60500      177.84700
C        216.62500      131.00200      179.29600
C        215.17700      130.83800      179.71900
O        214.58700      129.77700      179.43400
O        214.62300      131.77800      180.32800
N        216.65400      133.52700      176.44500
C        216.64600      134.96800      176.64900
C        215.26500      135.55800      176.39700
O        214.78300      136.38700      177.17700
C        217.68400      135.62200      175.74300
C        217.35300      137.02700      175.36900
C        217.54200      138.05600      176.26800
C        216.84300      137.31900      174.12200
C        217.23400      139.35000      175.92700
C        216.53600      138.61300      173.77500
C        216.73300      139.63000      174.67900
N        214.60500      135.13300      175.32400
C        213.26600      135.62100      175.02700
C        212.17800      134.80600      175.70000
O        211.13200      135.36200      176.04800
C        213.02000      135.63100      173.51200
C        212.11800      134.52100      173.02700
C        212.63800      133.28900      172.68100
C        210.75200      134.72300      172.89300
C        211.81300      132.27900      172.23800
C        209.92700      133.71800      172.45100
C        210.45800      132.49600      172.12000
N        212.39900      133.50300      175.88600
C        211.34200      132.63400      176.38300
C        210.86100      133.04500      177.76200
O        209.74300      132.69200      178.14900
C        211.82100      131.18500      176.41000
C        210.68100      130.20000      176.56400
O        210.25200      129.96000      177.71000
O        210.20500      129.67300      175.53800
N        211.67600      133.78500      178.51100
C        211.23100      134.27500      179.80700
C        210.05900      135.23400      179.65200
O        208.99300      135.02800      180.24300
C        212.39100      134.94800      180.53700
N        210.22900      136.27300      178.83900
C        209.24000      137.33700      178.72800
C        208.60300      137.42300      177.35100
O        207.37300      137.49800      177.24700
C        209.88400      138.68500      179.08700
N        209.40500      137.40700      176.28700
C        208.89200      137.72300      174.95900
C        207.82700      136.74200      174.49100
O        207.02500      137.08700      173.61400
C        210.04300      137.77300      173.95600
C        210.85600      139.06600      173.85900
C        211.62000      139.34700      175.14000
C        211.81100      139.00000      172.68500
N        207.79700      135.53000      175.04700
C        206.72500      134.60200      174.71100
C        205.36800      135.18300      175.08400
O        204.38500      135.03000      174.34400
C        206.95100      133.26700      175.41300
C        206.03900      132.18000      174.89600
O        205.42900      132.31900      173.83800
N        205.94400      131.08400      175.63700
N        205.29900      135.86500      176.22700
C        204.07800      136.57400      176.58000
C        203.72700      137.61900      175.53400
O        202.54700      137.83900      175.25200
C        204.22400      137.22600      177.95200
O        204.99000      138.41300      177.86300
N        204.73100      138.26200      174.93800
C        204.45100      139.25100      173.90300
C        203.88500      138.59400      172.65500
O        202.94400      139.11100      172.04200
C        205.71300      140.03600      173.56800
C        206.13500      141.02600      174.64400
C        207.21500      141.94300      174.11300
C        204.93600      141.82400      175.11400
N        204.45700      137.46100      172.25000
C        203.90600      136.74500      171.10500
C        202.46100      136.35000      171.36300
O        201.60900      136.45000      170.47200
C        204.75400      135.51700      170.78900
S        204.20300      134.60000      169.34400
N        202.15400      135.92800      172.58700
C        200.77100      135.59600      172.90800
C        199.87900      136.83000      172.83800
O        198.80500      136.80600      172.21900
C        200.70200      134.94900      174.28600
C        201.46100      133.64400      174.35700
S        201.13700      132.60500      172.91900
C        202.71100      132.68600      172.07000
N        200.31300      137.92200      173.46700
C        199.53400      139.15300      173.45000
C        199.27600      139.62400      172.03100
O        198.23800      140.23200      171.75600
C        200.25000      140.24300      174.24400
N        200.20700      139.35700      171.12100
C        199.96100      139.67800      169.72400
C        198.93300      138.73600      169.12800
O        198.00900      139.17300      168.43700
C        201.26100      139.62300      168.93900
C        202.17800      140.71500      169.30400
C        201.84000      141.91900      169.83300
C        203.59900      140.71400      169.18100
N        202.96400      142.67500      170.04200
C        204.05800      141.95400      169.64600
C        204.52900      139.78500      168.71100
C        205.40300      142.29000      169.65800
C        205.86300      140.12000      168.72500
C        206.28800      141.35900      169.19500
N        199.06700      137.44000      169.39400
C        198.10700      136.48800      168.85800
C        196.68400      136.79200      169.29200
O        195.74300      136.44500      168.57400
C        198.47500      135.07200      169.27900
C        199.62400      134.46400      168.49400
C        199.85200      133.04200      168.93900
C        199.31100      134.51900      167.02100
N        196.49500      137.43000      170.44200
C        195.14900      137.70700      170.92200
C        194.69300      139.10900      170.55500
O        193.63900      139.55100      171.01800
C        195.03500      137.48700      172.43700
C        195.19200      136.02500      172.76600
C        196.05700      138.32200      173.17100
N        195.45400      139.82200      169.73200
C        195.15700      141.22400      169.48700
C        193.95900      141.38900      168.55900
O        193.49500      140.44400      167.91700
C        196.36500      141.93000      168.88900
C        196.29400      143.41500      169.06100
O        195.27100      143.88400      169.59900
O        197.24500      144.11300      168.66300
N        193.46400      142.62300      168.48700
C        192.28900      142.90900      167.67600
C        192.65900      143.19400      166.22800
O        192.07400      142.61700      165.30700
C        191.52900      144.08800      168.26600
C        191.13100      143.89000      169.69100
N        190.37600      142.81600      170.10700
C        191.37900      144.62800      170.79700
C        190.17800      142.90000      171.41000
N        190.77700      143.99000      171.85300
N        193.61900      144.08800      166.01000
C        193.96700      144.50200      164.65900
C        194.45200      143.29900      163.87500
O        195.47900      142.69800      164.20500
C        195.02200      145.60000      164.69600
C        195.18200      146.19800      163.33000
C        194.62600      146.65700      165.69800
N        193.71900      142.95200      162.82100
C        193.96900      141.70400      162.11300
C        195.39200      141.62500      161.59000
O        196.01800      140.55900      161.63700
C        192.98500      141.56200      160.96600
C        193.24800      140.39200      160.07100
C        192.62900      139.18400      160.29800
C        194.09100      140.50100      158.98500
C        192.85000      138.11300      159.47900
C        194.32200      139.43600      158.16400
C        193.69600      138.24200      158.41100
O        193.92200      137.16500      157.58800
N        195.91000      142.73000      161.05900
C        197.26000      142.70700      160.51100
C        198.26400      142.29100      161.56900
O        199.24300      141.59300      161.27500
C        197.61700      144.07300      159.94000
N        198.02400      142.69300      162.81300
C        198.92000      142.31400      163.89100
C        198.88500      140.81100      164.10700
O        199.93000      140.17300      164.25900
C        198.56300      143.09100      165.16300
C        199.28400      144.43000      165.15200
C        198.93900      142.31100      166.38400
C        199.01000      145.26400      166.35100
N        197.69300      140.21500      164.11100
C        197.60600      138.76900      164.26800
C        198.30800      138.05300      163.12500
O        198.97800      137.03400      163.33400
C        196.14800      138.33900      164.35500
C        195.43800      138.86700      165.57700
C        194.15500      138.11900      165.82800
N        193.23000      138.25800      164.71500
C        192.28400      139.18300      164.65300
N        192.14400      140.04900      165.64200
N        191.48000      139.24500      163.60300
N        198.17700      138.58000      161.91100
C        198.82300      137.95300      160.76500
C        200.33600      137.97200      160.91100
O        201.01200      136.94700      160.72800
C        198.39900      138.66200      159.48600
C        198.08400      137.72600      158.35100
C        196.76600      137.00400      158.54200
O        196.15100      137.14300      159.62000
O        196.33400      136.29700      157.60800
N        200.88800      139.14400      161.21800
C        202.32100      139.23700      161.45000
C        202.75100      138.30500      162.56800
O        203.81600      137.67900      162.49300
C        202.70300      140.67400      161.78000
N        201.93400      138.19900      163.61400
C        202.27500      137.33000      164.72800
C        202.40500      135.89300      164.26600
O        203.36700      135.20800      164.61200
C        201.22800      137.44700      165.83000
N        201.45200      135.42200      163.46400
C        201.52800      134.03900      163.00000
C        202.74400      133.81900      162.11000
O        203.44200      132.80300      162.23700
C        200.25800      133.65700      162.25300
O        200.14500      134.45900      161.07500
C        199.04900      133.88400      163.13200
N        203.01700      134.75600      161.20300
C        204.17500      134.58900      160.32900
C        205.46500      134.50400      161.13600
O        206.29000      133.60200      160.92900
C        204.24500      135.74000      159.33100
O        204.16900      136.98600      159.99700
N        205.65200      135.42600      162.07300
C        206.87700      135.40900      162.85500
C        206.91000      134.23700      163.81600
O        207.99000      133.78800      164.20000
C        207.03000      136.73300      163.59200
C        207.08800      137.90600      162.63900
O        206.78600      137.76700      161.45300
N        207.47800      139.06400      163.14400
N        205.74800      133.71600      164.19200
C        205.70000      132.46900      164.93800
C        206.28600      131.33200      164.12200
O        207.05400      130.51000      164.63900
C        204.25600      132.17100      165.32000
C        203.96100      130.92800      166.13900
C        203.56400      131.32600      167.53800
C        202.85900      130.14600      165.47300
N        205.92200      131.26200      162.84400
C        206.50900      130.25600      161.96700
C        208.01700      130.44500      161.87100
O        208.78300      129.47600      161.88800
C        205.85800      130.32700      160.58700
C        206.32100      129.27600      159.57900
C        207.57400      129.68600      158.80300
C        207.64300      131.18900      158.57500
N        208.99800      131.61300      158.13100
N        208.46100      131.69300      161.74300
C        209.90000      131.94300      161.71600
C        210.56900      131.44700      162.99400
O        211.62300      130.79800      162.94900
C        210.17300      133.43100      161.51400
C        209.67400      133.97400      160.20200
C        209.63500      135.47900      160.21100
C        209.07100      135.99100      158.90300
N        209.09000      137.47300      158.80700
N        209.95300      131.72500      164.14100
C        210.52600      131.32700      165.41900
C        210.63900      129.81700      165.51900
O        211.66700      129.28900      165.95300
C        209.67700      131.87100      166.56100
C        209.76500      133.37200      166.78600
C        209.05500      133.73000      168.06800
C        211.21300      133.80600      166.83200
N        209.57800      129.10300      165.15000
C        209.63500      127.64800      165.23400
C        210.67400      127.09600      164.26900
O        211.42000      126.17000      164.60900
C        208.24700      127.02300      165.00700
C        207.73500      127.30600      163.62800
C        208.33600      125.53200      165.17200
N        210.76700      127.67200      163.06700
C        211.80400      127.25700      162.13200
C        213.18400      127.40100      162.75200
O        214.04600      126.53300      162.57900
C        211.69200      128.07600      160.84800
C        212.93400      128.08900      159.98200
C        213.81100      129.29500      160.24500
O        213.62100      129.95600      161.28500
O        214.68400      129.58900      159.40400
N        213.40600      128.47800      163.50000
C        214.74000      128.69400      164.04400
C        214.99200      127.92400      165.33500
O        216.15100      127.65400      165.66400
C        214.97700      130.18000      164.28000
C        216.06700      130.75300      163.40800
C        216.42100      132.15300      163.84600
C        217.74800      132.59600      163.26700
N        218.14700      133.92200      163.81200
N        213.94800      127.57200      166.08200
C        214.12600      127.01100      167.41500
C        213.71300      125.55200      167.52600
O        213.73800      125.00000      168.62900
C        213.36000      127.83600      168.44600
C        214.02100      129.12700      168.79300
C        215.23100      129.47200      168.22800
C        213.43500      129.99300      169.68900
C        215.84100      130.65900      168.54500
C        214.04400      131.18100      170.01100
C        215.24800      131.51500      169.44000
N        213.31600      124.92100      166.43200
C        213.15200      123.48700      166.43300
C        211.84900      123.02300      167.06000
O        211.27000      123.65700      167.94500
N        211.40800      121.85300      166.59900
C        210.11100      121.32300      166.99200
C        210.07800      120.92100      168.45600
O        209.00400      120.90000      169.06000
C        209.75700      120.13400      166.11000
C        210.43200      120.18000      164.76100
C        209.68100      119.35400      163.75000
C        210.37100      119.38500      162.40600
N        209.37300      119.43600      161.30400
N        211.22800      120.59300      169.04200
C        211.25500      120.30200      170.47100
C        210.80400      121.51100      171.27700
O        209.82300      121.44000      172.02900
C        212.65700      119.86700      170.89400
N        211.50900      122.63400      171.12300
C        211.08800      123.86500      171.77400
C        209.66500      124.22900      171.38400
O        208.89200      124.71700      172.21600
C        212.03800      125.00300      171.41500
C        211.47500      126.32800      171.76500
C        211.59200      126.97300      172.95400
C        210.68100      127.16900      170.92700
N        210.92800      128.17100      172.90900
C        210.35800      128.31300      171.67300
C        210.21100      127.06400      169.61700
C        209.59200      129.34700      171.15300
C        209.45200      128.09300      169.10200
C        209.14900      129.21900      169.86800
N        209.30100      124.00300      170.12200
C        207.95400      124.33200      169.67100
C        206.90500      123.59400      170.48900
O        206.08600      124.20900      171.18000
C        207.80500      123.99100      168.19200
N        206.92000      122.26600      170.41800
C        205.93100      121.46500      171.12200
C        205.99800      121.69000      172.62100
O        204.98900      121.53100      173.31600
C        206.13500      119.99000      170.78900
C        205.25400      119.06700      171.56700
N        203.99900      119.43000      172.00500
C        205.44000      117.79000      171.97600
C        203.45300      118.41900      172.65600
N        204.30600      117.41100      172.65100
N        207.16400      122.07200      173.13900
C        207.27300      122.29200      174.57200
C        206.70100      123.63500      174.99700
O        206.23700      123.77300      176.13200
C        208.73500      122.19000      175.00400
N        206.71900      124.62900      174.11500
C        206.41400      125.99400      174.50700
C        205.14300      126.53400      173.86600
O        204.21800      126.94500      174.57100
C        207.60800      126.88200      174.14700
O        207.90600      126.73300      172.75300
C        208.82200      126.46900      174.94900
N        205.06600      126.53100      172.54000
C        204.05600      127.31000      171.83500
C        202.76200      126.52900      171.67500
O        201.71200      126.94100      172.17700
C        204.57800      127.75700      170.46100
C        205.68400      128.79300      170.62800
C        203.45100      128.33300      169.63900
C        205.21500      130.07800      171.26700
N        202.84000      125.40200      170.97500
C        201.68100      124.64300      170.50900
C        200.62300      124.47300      171.59700
O        199.42800      124.65300      171.31400
C        202.12500      123.28700      169.94300
C        203.39700      123.46500      169.11700
C        201.04000      122.69300      169.08100
C        203.76200      122.25500      168.28500
N        200.98700      124.13500      172.83900
C        199.95600      124.10500      173.88600
C        199.23800      125.42800      174.06100
O        198.01500      125.44100      174.23200
C        200.75000      123.72000      175.13900
C        201.89000      122.95400      174.62200
C        202.27200      123.62400      173.34700
N        199.95900      126.54800      174.00600
C        199.32900      127.84200      174.24300
C        198.28800      128.15100      173.17400
O        197.15300      128.53400      173.48400
C        200.39100      128.93900      174.29700
N        198.65300      127.98700      171.90300
C        197.70200      128.27100      170.83500
C        196.53400      127.29700      170.88800
O        195.37100      127.69200      170.73500
C        198.40600      128.24700      169.46800
C        199.37500      127.10700      169.40300
C        197.38900      128.11500      168.35800
N        196.81200      126.01400      171.11900
C        195.70500      125.07000      171.17100
C        194.78100      125.35800      172.34500
O        193.58800      125.04600      172.28400
C        196.22700      123.64000      171.22100
C        196.15500      122.93900      169.86300
C        195.25600      123.70000      168.90600
C        197.52900      122.78000      169.26000
N        195.30500      125.95800      173.41200
C        194.42800      126.47900      174.45100
C        193.61600      127.65100      173.93200
O        192.42000      127.76100      174.22300
C        195.24500      126.89700      175.67200
N        194.25100      128.53400      173.16200
C        193.53800      129.64500      172.54400
C        192.40500      129.16800      171.64600
O        191.45700      129.92200      171.40700
C        194.51400      130.51300      171.74700
C        193.92100      131.79700      171.20000
S        193.57700      132.99400      172.49500
C        191.79700      132.88200      172.61000
N        192.46800      127.92500      171.17000
C        191.46100      127.40000      170.25400
C        190.04300      127.47000      170.80000
O        189.10400      127.17000      170.05900
C        191.77200      125.95300      169.90700
O        191.25800      125.09300      170.90600
N        189.85900      127.82000      172.06600
C        188.51900      127.98400      172.58800
C        188.32600      129.29700      173.31600
O        188.95500      129.53800      174.35000
N        187.45200      130.14400      172.79000
C        187.10500      131.41700      173.40500
C        185.95500      132.02500      172.60800
O        185.70300      131.60500      171.47700
C        188.31100      132.36800      173.44500
C        188.41700      133.22700      172.21500
O        188.27200      132.70100      171.09200
O        188.63300      134.44500      172.37700
N        185.24200      133.00300      173.17500
C        184.02800      133.50000      172.51300
C        184.24800      134.05000      171.11300
O        183.63900      133.56800      170.15300
C        183.54400      134.60300      173.46300
C        184.73000      134.94900      174.29400
C        185.45000      133.66400      174.47100
N        185.11200      135.05400      170.98200
C        185.28300      135.75200      169.71400
C        185.81900      134.82300      168.63800
O        186.96500      134.37100      168.71500
C        186.21700      136.94400      169.89000
C        185.98900      138.00900      168.85100
O        184.87300      138.19300      168.37700
N        187.04700      138.71900      168.48700
N        185.00300      134.54300      167.62300
C        185.39800      133.58200      166.60500
C        186.64000      134.01300      165.84800
O        187.31600      133.16500      165.26200
C        184.25900      133.34700      165.62700
C        184.07200      134.44600      164.62500
C        183.68800      135.70900      165.02100
C        184.26000      134.21500      163.27700
C        183.50700      136.71300      164.10500
C        184.08000      135.21400      162.35600
C        183.70400      136.45900      162.77700
O        183.52200      137.46300      161.86600
N        186.95500      135.30500      165.83400
C        188.24900      135.72700      165.31600
C        189.37100      135.11300      166.13300
O        190.35000      134.59500      165.58300
C        188.35300      137.24800      165.33000
C        187.19200      138.02000      164.71800
C        187.46700      139.50300      164.78600
C        186.97900      137.58500      163.29300
N        189.23200      135.14000      167.45200
C        190.24400      134.55900      168.31200
C        190.21100      133.04200      168.31200
O        190.87600      132.42900      169.14800
C        190.08400      135.09600      169.72800
C        190.40400      136.55200      169.85400
N        189.73300      137.39100      170.71600
C        191.32500      137.31800      169.22500
C        190.22500      138.61300      170.61200
N        191.19300      138.59500      169.71500
N        189.45600      132.42700      167.40900
C        189.54700      130.99900      167.14000
C        190.12000      130.71600      165.76100
O        191.00200      129.86100      165.61100
C        188.16800      130.35300      167.27000
C        187.47400      130.67700      168.57700
C        186.43700      129.63400      168.94500
N        185.20300      129.79300      168.18900
C        184.19400      130.56500      168.57000
N        184.27500      131.25200      169.69600
N        183.10700      130.65300      167.82600
N        189.64800      131.43400      164.74700
C        190.29000      131.36200      163.44700
C        191.75600      131.74900      163.51400
O        192.53600      131.30300      162.67200
C        189.57100      132.25800      162.44900
C        188.25000      131.71400      161.98800
S        187.49600      132.80200      160.78400
C        187.62000      134.34900      161.66100
N        192.16300      132.55900      164.49100
C        193.58500      132.86100      164.59200
C        194.37300      131.63000      165.00500
O        195.46600      131.38500      164.48900
C        193.83800      134.00700      165.56400
O        195.24800      134.19000      165.70700
C        193.26300      133.70000      166.91000
N        193.83300      130.83300      165.92500
C        194.47300      129.56600      166.24500
C        194.48100      128.65800      165.03200
O        195.45200      127.93200      164.79000
C        193.75100      128.88600      167.39800
O        192.73000      128.03200      166.87300
C        193.11100      129.92300      168.28400
N        193.39800      128.68200      164.26200
C        193.36700      127.89300      163.03800
C        194.49100      128.29700      162.09700
O        195.16100      127.44000      161.51200
C        192.02100      128.04700      162.35000
C        191.45600      126.74700      161.80100
C        191.48900      125.69400      162.87400
C        190.04800      126.97900      161.33500
N        194.72000      129.59700      161.94400
C        195.77800      130.05600      161.05400
C        197.14700      129.70400      161.60900
O        198.06400      129.36200      160.85300
C        195.66700      131.55900      160.83800
C        194.37900      131.98200      160.22200
C        193.74400      131.17700      159.30500
C        193.80100      133.18500      160.56000
C        192.56000      131.56600      158.73900
C        192.61700      133.57400      159.99700
C        191.99600      132.76500      159.08700
N        197.31300      129.81100      162.92600
C        198.56200      129.38400      163.53800
C        198.84500      127.93000      163.21500
O        199.97100      127.57300      162.86500
C        198.51100      129.59300      165.04800
S        198.44900      131.31300      165.56800
N        197.82900      127.07800      163.32300
C        197.99400      125.67100      162.97600
C        198.36600      125.53000      161.50900
O        199.26800      124.76700      161.13800
C        196.70900      124.89700      163.30200
C        196.55900      124.75500      164.81300
C        196.71000      123.56100      162.60900
C        195.23100      124.19800      165.23500
N        197.65700      126.26000      160.65200
C        197.90800      126.20600      159.22000
C        199.35900      126.52600      158.90000
O        199.97200      125.88100      158.04400
C        196.97900      127.18000      158.50700
C        196.96500      126.98300      157.02100
O        197.97000      127.18900      156.34600
N        195.81600      126.59100      156.49200
N        199.92600      127.52000      159.57700
C        201.29300      127.92200      159.28100
C        202.32200      127.10000      160.04600
O        203.49200      127.05600      159.64100
C        201.49900      129.41700      159.57100
C        201.60600      129.65500      161.05600
C        202.72200      129.92800      158.85400
N        201.92600      126.44200      161.13300
C        202.86400      125.59700      161.85500
C        203.05100      124.26600      161.15700
O        204.16300      123.73300      161.12500
C        202.38600      125.37200      163.28200
C        202.68100      126.53100      164.22400
C        202.43400      126.12000      165.66000
C        204.10400      126.99900      164.02800
N        201.97500      123.72700      160.58400
C        202.04400      122.42100      159.94000
C        203.15400      122.34200      158.90200
O        203.71700      121.26500      158.67800
C        200.70500      122.10500      159.28700
O        200.22600      123.23900      158.58700
N        203.48100      123.46500      158.26200
C        204.49000      123.45100      157.20900
C        205.82800      122.94100      157.72000
O        206.56900      122.28200      156.98400
C        204.66400      124.85100      156.62600
C        203.56600      125.29600      155.68800
C        203.86300      126.64700      155.07100
O        204.78100      127.33500      155.56300
O        203.18100      127.02300      154.09700
N        206.16200      123.24200      158.97100
C        207.49100      122.95100      159.48800
C        207.47700      122.06000      160.71800
O        208.53200      121.51600      161.07700
C        208.25700      124.25200      159.79400
C        208.35700      125.10700      158.55100
C        207.56400      125.00200      160.90100
N        206.34200      121.88300      161.38200
C        206.30800      121.13000      162.62400
C        206.38200      119.62400      162.40200
O        206.60300      118.88100      163.36300
C        205.04400      121.51100      163.40000
S        204.68700      120.56000      164.88200
N        206.22700      119.15500      161.16900
C        206.35900      117.73800      160.89000
C        205.11100      116.95400      161.22900
O        204.54600      117.12300      162.31300
N        204.70500      116.05400      160.32900
C        203.37300      115.46100      160.40700
C        203.15100      114.69000      161.69800
O        202.00300      114.49800      162.11000
C        203.13200      114.54400      159.21200
C        204.15000      113.44200      159.06000
C        203.85000      112.55100      157.87600
O        202.68900      112.30700      157.54700
N        204.89600      112.06400      157.22300
N        204.22100      114.23400      162.34500
C        204.06300      113.51800      163.60300
C        203.34400      114.38100      164.63200
O        202.23300      114.05700      165.07000
C        205.43000      113.07600      164.12200
C        206.46600      114.18100      164.04700
O        206.30300      115.08800      163.20700
O        207.43700      114.14500      164.83100
N        203.96000      115.50100      165.01300
C        203.38000      116.36100      166.03800
C        202.03600      116.90000      165.58000
O        201.11700      117.09000      166.38900
C        204.35300      117.49900      166.38700
C        205.79500      117.01700      166.28300
C        204.07100      118.03600      167.77400
C        206.80400      118.11100      166.49000
N        201.89800      117.16400      164.28000
C        200.61400      117.61200      163.75800
C        199.52800      116.59700      164.06900
O        198.59600      116.88500      164.82100
C        200.69400      117.85600      162.25300
O        200.68000      116.60000      161.56500
C        201.94100      118.63500      161.89600
N        199.65100      115.38800      163.52600
C        198.61700      114.39000      163.74600
C        198.47600      114.02300      165.21200
O        197.45200      113.45300      165.59800
C        198.90400      113.13900      162.93000
O        197.73100      112.32000      162.90000
C        200.03500      112.35700      163.55300
N        199.47200      114.33600      166.03800
C        199.33200      114.05900      167.46100
C        198.46900      115.10500      168.15200
O        197.57700      114.76200      168.93300
C        200.70600      113.98600      168.12300
C        201.48100      112.72800      167.79900
C        202.97000      112.95600      167.96600
C        203.76900      111.92100      167.20000
N        205.22800      112.20400      167.25100
N        198.71200      116.38400      167.87400
C        198.08200      117.45600      168.63400
C        197.16600      118.33400      167.79900
O        196.02900      118.59800      168.20700
C        199.16100      118.31900      169.29600
C        200.18300      117.52800      170.04400
N        200.01300      117.14600      171.35600
C        201.38400      117.03700      169.66100
C        201.06800      116.45900      171.75300
N        201.91600      116.37900      170.74300
N        197.62800      118.79800      166.64100
C        196.86000      119.75500      165.85600
C        195.56600      119.13600      165.35200
O        194.47100      119.63100      165.63800
C        197.70200      120.25400      164.68400
C        199.06800      120.78500      165.06900
S        200.03500      121.23400      163.61800
C        201.44900      122.01800      164.37700
N        195.68200      118.04900      164.59400
C        194.52400      117.41700      163.96400
C        193.33500      117.22600      164.89300
O        192.21000      117.54900      164.48100
C        194.94300      116.07500      163.35700
C        195.05400      116.11200      161.84300
C        193.66800      116.15600      161.23600
C        195.87300      117.30900      161.42300
N        193.48600      116.70900      166.11700
C        192.30900      116.58500      166.99000
C        191.56100      117.89200      167.15900
O        190.32800      117.92900      167.04600
C        192.91400      116.09400      168.30800
C        194.14100      115.38800      167.90800
C        194.69100      116.15400      166.75800
N        192.28500      118.98100      167.40200
C        191.62500      120.25900      167.61700
C        190.94000      120.74800      166.35200
O        189.85400      121.32400      166.41900
C        192.62900      121.28700      168.10700
O        193.65300      121.44400      167.12100
C        193.24800      120.81100      169.40100
N        191.55900      120.54200      165.19200
C        190.92100      120.95600      163.94800
C        189.62100      120.19500      163.74800
O        188.57200      120.78000      163.45100
C        191.87400      120.75900      162.76000
C        191.09000      120.72000      161.47000
C        192.88700      121.87300      162.72300
N        189.67300      118.87500      163.90300
C        188.46500      118.07900      163.74100
C        187.39400      118.50700      164.72900
O        186.20200      118.49900      164.40700
C        188.78900      116.60000      163.90400
C        189.95900      116.12400      163.05100
C        190.54300      114.85300      163.62800
C        189.52800      115.92600      161.60900
N        187.79600      118.89400      165.93600
C        186.80700      119.32300      166.91300
C        186.19400      120.65800      166.51600
O        184.96900      120.81500      166.51900
C        187.43900      119.40200      168.29700
C        186.45000      119.71200      169.39900
C        186.62600      121.13200      169.89300
N        188.00300      121.58400      169.73800
C        188.99100      121.27100      170.56900
N        188.75600      120.50000      171.61900
N        190.21400      121.72600      170.34800
N        187.03200      121.63200      166.15900
C        186.52600      122.92800      165.72500
C        185.63200      122.80400      164.50900
O        184.77600      123.66500      164.29300
C        187.67900      123.87800      165.41600
C        188.58100      124.14000      166.59500
S        189.66000      125.54700      166.33400
C        188.46500      126.86500      166.44500
N        185.79000      121.73600      163.73000
C        184.90800      121.50200      162.59600
C        183.44000      121.45800      162.98800
O        182.58300      121.38300      162.10200
C        185.28300      120.20100      161.89800
N        183.12800      121.47400      164.28300
C        181.76500      121.58600      164.75100
C        181.39600      122.92500      165.34300
O        180.31200      123.04500      165.92800
N        182.25100      123.93600      165.22600
C        181.93200      125.25200      165.75100
C        180.63400      125.76000      165.12800
O        180.31400      125.42400      163.98600
C        183.07000      126.22400      165.45500
C        182.85000      127.58500      166.06500
O        183.42700      127.86300      167.13400
O        182.08800      128.38000      165.48000
N        179.85700      126.55900      165.86200
C        178.61300      127.07800      165.27300
C        178.84400      128.06200      164.14200
O        178.15000      127.99200      163.12000
C        177.91500      127.73800      166.46800
C        178.99800      127.99000      167.44800
C        179.94300      126.85500      167.29800
N        179.79800      128.97800      164.29000
C        180.00100      130.01900      163.29100
C        180.49500      129.39800      161.99400
O        181.46100      128.62600      161.98400
C        180.98500      131.07100      163.81100
C        180.99300      132.26700      162.90000
C        180.61300      131.47700      165.20600
N        179.83900      129.74300      160.88500
C        180.21300      129.16700      159.60000
C        181.60800      129.58900      159.17700
O        182.29200      128.84600      158.46300
C        179.20300      129.56600      158.53200
N        182.04300      130.77700      159.58900
C        183.39300      131.21400      159.26500
C        184.42200      130.24000      159.81500
O        185.34100      129.81400      159.10300
C        183.62900      132.61600      159.81100
C        182.97200      133.67000      158.97100
O        181.89500      134.15800      159.29500
N        183.61500      134.02600      157.87200
N        184.26900      129.86400      161.08200
C        185.18700      128.91100      161.68700
C        185.17400      127.60600      160.91700
O        186.21900      126.99100      160.69500
C        184.82600      128.69000      163.16100
C        185.93500      127.96100      163.85400
C        184.56600      130.00800      163.82400
N        183.99900      127.17300      160.47500
C        183.91200      125.87600      159.82100
C        184.61000      125.88700      158.46900
O        185.41500      124.99700      158.16800
C        182.45400      125.46200      159.68200
C        181.76800      125.31100      161.01200
C        180.47500      124.55600      160.88100
N        179.37300      125.33000      161.42500
C        178.46300      125.94200      160.68300
N        178.52100      125.85500      159.36600
N        177.49600      126.63500      161.25900
N        184.32700      126.87600      157.63000
C        184.98300      126.81300      156.33400
C        186.45500      127.17100      156.43200
O        187.23700      126.74800      155.57600
C        184.24200      127.66300      155.30000
C        184.57700      129.11700      155.31800
C        185.68500      129.59400      154.65100
C        183.73700      130.01700      155.93200
C        185.97400      130.92600      154.64400
C        184.02100      131.34800      155.92200
C        185.14100      131.80500      155.27900
N        186.87900      127.86800      157.48600
C        188.31500      127.97900      157.70000
C        188.91200      126.65200      158.14100
O        190.06200      126.35100      157.80800
C        188.61600      129.06500      158.71700
C        188.64900      130.42800      158.09300
O        187.67000      131.16400      158.13800
N        189.77400      130.77000      157.48300
N        188.15400      125.85500      158.89500
C        188.58100      124.49400      159.19800
C        188.80800      123.72900      157.90700
O        189.81200      123.03100      157.74200
C        187.54500      123.78900      160.08900
C        187.63700      122.29800      159.92500
C        187.74500      124.16300      161.53200
N        187.87300      123.85800      156.97200
C        188.02800      123.18400      155.68700
C        189.26900      123.67500      154.95500
O        190.02100      122.87600      154.38000
C        186.78600      123.39200      154.82700
N        189.48900      124.98900      154.94900
C        190.67800      125.53800      154.30900
C        191.94000      124.93700      154.90200
O        192.81600      124.45600      154.17600
C        190.69900      127.05600      154.45200
C        189.68900      127.77100      153.59600
C        189.88300      129.26700      153.66200
C        191.30700      129.63900      153.31700
N        191.54500      131.09800      153.45500
N        192.04800      124.95400      156.22800
C        193.25200      124.45000      156.87100
C        193.40900      122.95400      156.66700
O        194.53500      122.45600      156.59500
C        193.23600      124.78600      158.35700
O        193.69100      126.10800      158.57400
N        192.30200      122.22400      156.56300
C        192.39700      120.79500      156.30500
C        192.96600      120.53600      154.92200
O        193.88900      119.73000      154.76000
C        191.02900      120.14300      156.45600
C        190.69900      119.76900      157.89200
C        189.33200      119.14100      157.96900
C        191.74500      118.82200      158.41100
N        192.42700      121.21300      153.91000
C        193.01100      121.10600      152.58000
C        194.48300      121.47800      152.60600
O        195.31000      120.83200      151.95500
C        192.26400      121.99700      151.59300
C        193.16900      122.60900      150.54800
C        192.40900      123.37200      149.50200
O        191.19200      123.24500      149.38900
N        193.12100      124.17100      148.72100
N        194.83000      122.51500      153.36600
C        196.21400      122.96300      153.42100
C        197.12300      121.87700      153.97800
O        198.08800      121.45900      153.33100
C        196.31600      124.22700      154.26700
C        197.72300      124.53200      154.71900
C        198.55800      125.04600      153.57000
C        199.92500      125.48700      154.04200
N        200.73600      126.01600      152.91700
N        196.82300      121.40100      155.18900
C        197.71100      120.46200      155.86800
C        197.52300      119.03000      155.41200
O        198.20700      118.13700      155.92700
C        197.51700      120.53900      157.39200
C        196.24000      119.81800      157.80500
C        197.44700      121.97600      157.82700
C        195.85800      120.07200      159.23500
N        196.62100      118.78000      154.47100
C        196.41900      117.45500      153.93800
C        197.69800      116.75600      153.52400
O        198.06700      115.71900      154.08400
N        198.40300      117.31100      152.53300
C        199.61700      116.64300      152.03900
C        200.63700      116.36700      153.12100
O        201.41300      115.41200      153.00100
C        200.15800      117.63000      150.99800
C        198.97400      118.39900      150.56700
C        198.11900      118.54300      151.78300
N        200.66700      117.18200      154.17200
C        201.53500      116.89300      155.30500
C        201.18700      115.54000      155.90400
O        202.07200      114.74500      156.24200
C        201.43100      118.01700      156.35000
C        202.17800      119.26000      155.87000
C        201.94800      117.55400      157.69000
C        201.30100      120.26600      155.16500
N        199.89600      115.24200      156.01000
C        199.43500      114.07900      156.74600
C        199.62400      112.80400      155.93100
O        200.08500      112.82000      154.78800
C        197.97400      114.25700      157.14400
C        197.76100      114.59100      158.61600
C        197.95900      113.34400      159.44400
C        198.71100      115.68500      159.06800
N        199.25200      111.68100      156.53800
C        199.35600      110.36700      155.92100
C        198.05300      110.01400      155.21900
O        196.96500      110.30700      155.72300
C        199.68800      109.30400      156.96800
C        199.22500      107.91800      156.56500
O        199.45900      107.51700      155.40500
O        198.62300      107.22800      157.41200
N        198.17600      109.36200      154.06200
C        197.00500      109.02900      153.25800
C        196.00400      108.19700      154.04800
O        194.79100      108.41200      153.94800
C        197.44300      108.28800      151.99900
C        198.79300      108.75500      151.49700
O        199.82100      108.49400      152.12200
N        198.80000      109.44700      150.36400
N        196.49300      107.24100      154.83800
C        195.59400      106.44300      155.66200
C        194.91200      107.31000      156.70900
O        193.69700      107.21400      156.91600
C        196.36000      105.30500      156.32800
O        196.88600      105.73100      157.57200
N        195.68700      108.15200      157.39400
C        195.09200      109.09200      158.33400
C        194.06800      109.97300      157.64100
O        192.99600      110.24000      158.19200
C        196.17300      109.95000      158.98200
O        196.81700      110.73600      157.97400
C        197.20000      109.07100      159.66200
N        194.37700      110.42300      156.42800
C        193.43500      111.22400      155.66300
C        192.12400      110.47600      155.51400
O        191.10000      110.89700      156.06000
C        193.99500      111.55900      154.28300
C        195.20200      112.48600      154.19800
C        195.65500      112.62400      152.75500
C        194.87200      113.84000      154.79300
N        192.17300      109.33800      154.81900
C        190.96700      108.58300      154.50400
C        190.20900      108.15100      155.74600
O        188.98500      107.99400      155.68800
C        191.32500      107.35500      153.67000
C        192.06300      107.67400      152.38700
C        191.14200      108.19100      151.30600
O        189.92100      108.10500      151.42200
N        191.72400      108.73500      150.24600
N        190.89700      107.95900      156.86700
C        190.20800      107.52000      158.07000
C        189.53100      108.68400      158.78100
O        188.35500      108.59500      159.14600
C        191.19000      106.81700      159.00400
O        192.41600      107.52100      159.06600
N        190.25000      109.79100      158.97200
C        189.78600      110.87500      159.82600
C        189.15100      112.02100      159.05500
O        188.00800      112.39400      159.33300
C        190.95200      111.41500      160.65600
C        191.89500      110.35000      161.15000
C        191.19800      109.31300      161.99000
O        190.26800      109.68300      162.73600
O        191.57700      108.12800      161.90400
N        189.86600      112.59400      158.08900
C        189.44900      113.89600      157.58500
C        188.33800      113.75600      156.55800
O        187.42300      114.58400      156.51000
C        190.65900      114.67000      157.03000
C        191.75300      114.75100      158.08200
C        191.18300      114.04200      155.75400
N        188.38500      112.71600      155.73100
C        187.33700      112.54600      154.73200
C        185.95000      112.43800      155.35100
O        185.02100      113.06600      154.81200
C        187.64400      111.33600      153.84500
C        186.95100      111.39100      152.49600
C        187.63600      110.49100      151.48000
C        187.06600      110.69100      150.08300
N        185.61400      110.36700      150.01900
N        185.73200      111.70500      156.44900
C        184.41900      111.78400      157.11200
C        184.05000      113.20000      157.50800
O        182.93100      113.65400      157.23700
C        184.59500      110.87600      158.33400
C        185.65400      109.93400      157.95200
C        186.59700      110.69400      157.08100
N        184.97400      113.91400      158.14800
C        184.71700      115.29900      158.52200
C        184.46300      116.14100      157.28500
O        183.62100      117.04500      157.29200
C        185.88900      115.85000      159.34600
C        186.19900      114.90600      160.50000
C        185.55400      117.21400      159.87100
C        185.01000      114.63300      161.38000
N        185.17800      115.85500      156.19900
C        185.01900      116.64300      154.98600
C        183.62100      116.49000      154.41100
O        182.95300      117.48000      154.09500
C        186.07100      116.24500      153.95800
C        187.11900      117.32300      153.72500
C        186.48700      118.43400      152.93700
C        187.65000      117.84600      155.03800
N        183.16000      115.25200      154.25200
C        181.81300      115.07300      153.73100
C        180.77600      115.62000      154.69800
O        179.77800      116.21000      154.26700
C        181.54500      113.60300      153.41900
C        181.98000      112.63800      154.49400
C        182.39000      111.28800      153.93500
O        183.60500      111.05300      153.76300
O        181.49500      110.45800      153.66800
N        181.00700      115.46700      156.00400
C        180.09600      116.04300      156.98400
C        179.97100      117.54700      156.79800
O        178.86600      118.09800      156.85700
C        180.57700      115.71300      158.39500
C        180.01500      116.61700      159.46500
C        178.53500      116.37000      159.66400
C        177.98500      117.21000      160.80500
N        178.71100      116.96800      162.08200
N        181.09300      118.22700      156.56400
C        181.04300      119.65900      156.29600
C        180.32700      119.94600      154.98600
O        179.56100      120.90900      154.88700
C        182.45200      120.24000      156.27200
C        183.10700      120.35500      157.64100
C        184.44800      121.03100      157.51900
C        182.20400      121.13000      158.56100
N        180.56300      119.12400      153.96700
C        179.84900      119.30200      152.71100
C        178.34700      119.16300      152.89200
O        177.58000      119.71200      152.09600
C        180.34300      118.29900      151.67700
O        181.76900      118.36100      151.60900
C        179.78200      118.62300      150.30900
N        177.90600      118.45700      153.92800
C        176.48300      118.34500      154.21600
C        175.92800      119.56200      154.94100
O        174.77500      119.52900      155.37900
C        176.19600      117.09000      155.04300
C        176.75300      115.80400      154.46500
C        176.85600      115.83900      152.95700
O        175.85200      115.94600      152.25400
N        178.08000      115.76500      152.45000
N        176.71000      120.62800      155.07800
C        176.24000      121.81200      155.77600
C        175.27600      122.59500      154.89500
O        174.96800      122.21200      153.76400
C        177.41200      122.68900      156.19000
C        177.18500      123.35400      157.51400
O        176.35200      122.84400      158.28600
O        177.83200      124.38300      157.78700
N        174.79600      123.71900      155.42100
C        173.86400      124.55700      154.68000
C        174.49000      125.83800      154.16000
O        174.01700      126.37600      153.15500
C        172.65300      124.91000      155.54800
C        172.96600      125.83200      156.70300
C        173.55900      125.09600      157.87900
O        173.92700      123.92700      157.77000
N        173.65500      125.77500      159.01500
N        175.53300      126.34500      154.80700
C        176.19100      127.54500      154.31400
C        176.87600      127.23500      152.99300
O        177.66000      126.28800      152.89900
C        177.19400      128.06400      155.33600
C        177.60500      129.49400      155.06700
O        178.08300      129.77800      153.95200
O        177.43900      130.34200      155.96500
N        176.57400      128.02800      151.96700
C        177.10000      127.73500      150.64100
C        178.61400      127.87000      150.61200
O        179.29400      127.15700      149.86500
C        176.42300      128.63900      149.59900
C        176.74800      130.08600      149.86800
C        176.85000      128.24100      148.20300
N        179.17400      128.75500      151.43500
C        180.62000      128.94800      151.43200
C        181.33500      127.73800      152.01000
O        182.33200      127.26900      151.45200
C        180.98500      130.20100      152.21700
C        180.30700      131.43500      151.68300
O        180.22600      131.58300      150.44600
O        179.84800      132.25600      152.50300
N        180.85000      127.22600      153.13800
C        181.49800      126.06500      153.72900
C        181.32200      124.85000      152.83200
O        182.22800      124.02200      152.70800
C        180.97400      125.82300      155.15500
C        179.58100      125.27200      155.13100
C        181.89200      124.88400      155.89600
N        180.18000      124.74600      152.15500
C        179.99500      123.67500      151.18700
C        181.02600      123.77800      150.07400
O        181.68400      122.79500      149.71700
C        178.58000      123.72400      150.61700
C        177.57900      122.91600      151.40700
C        176.21700      122.94200      150.75300
C        175.63700      124.33700      150.77800
N        174.22600      124.36100      150.31400
N        181.18200      124.97800      149.52000
C        182.13000      125.18000      148.43300
C        183.55000      124.85800      148.86800
O        184.30700      124.21800      148.13100
C        182.03600      126.61700      147.93400
C        183.16200      127.03000      147.02900
C        183.16000      126.68000      145.69300
C        184.21600      127.78500      147.50800
C        184.18000      127.06100      144.86200
C        185.24100      128.17100      146.68400
C        185.21800      127.80600      145.36100
O        186.24100      128.18800      144.53000
N        183.92700      125.27500      150.07400
C        185.30200      125.07100      150.51100
C        185.57200      123.61000      150.83800
O        186.65800      123.09300      150.54800
C        185.60700      125.96200      151.70500
C        186.04500      127.33000      151.31900
C        185.12400      128.33500      151.13400
C        187.37600      127.60600      151.11100
C        185.52300      129.59300      150.76900
C        187.78200      128.86600      150.74900
C        186.85300      129.86000      150.57600
N        184.60200      122.92300      151.44000
C        184.76800      121.49500      151.66200
C        184.88100      120.75700      150.33900
O        185.70500      119.84700      150.19500
C        183.60600      120.95200      152.48700
N        184.06500      121.13600      149.35600
C        184.17400      120.51400      148.04500
C        185.53800      120.77300      147.43000
O        186.10600      119.89800      146.76800
C        183.06600      121.02200      147.13300
C        181.73300      120.37000      147.40000
C        181.65100      118.97800      146.81800
O        182.61400      118.47900      146.23800
N        180.49700      118.34100      146.96800
N        186.08300      121.96900      147.64200
C        187.42000      122.26200      147.14200
C        188.45400      121.36300      147.79700
O        189.33600      120.82100      147.12400
C        187.76200      123.73000      147.37600
C        187.05100      124.65700      146.42800
C        187.17800      124.20700      144.99300
O        188.32100      124.01100      144.53300
O        186.13800      124.03700      144.32800
N        188.36600      121.20000      149.11500
C        189.30800      120.32700      149.80500
C        189.22100      118.90800      149.26500
O        190.24400      118.26300      148.99700
C        189.04200      120.34700      151.30600
N        187.99900      118.41000      149.08700
C        187.81200      117.09100      148.50100
C        188.51200      116.99100      147.15400
O        189.40000      116.15500      146.95800
C        186.32300      116.78900      148.35700
C        185.61800      116.50300      149.67500
C        184.21200      116.00500      149.42200
C        186.41900      115.49500      150.46500
N        188.14100      117.86200      146.21800
C        188.68300      117.75900      144.87100
C        190.14900      118.14600      144.77700
O        190.73700      117.98000      143.70500
C        187.88400      118.62100      143.89900
O        188.20300      120.00100      144.11600
C        186.39500      118.39100      144.07300
N        190.75600      118.66400      145.83800
C        192.18200      118.94200      145.74600
C        192.94900      117.77800      146.35400
O        194.10500      117.53400      145.99300
C        192.56700      120.27200      146.41800
C        192.34100      120.21200      147.90800
C        194.01000      120.63000      146.10300
N        192.33200      117.04600      147.26900
C        193.12700      115.89800      147.69600
C        192.39100      114.57100      147.60900
O        192.99600      113.57100      147.22200
C        193.65000      116.11300      149.12200
C        192.67100      116.56400      150.19700
C        192.18500      115.37500      150.99000
C        193.34400      117.56400      151.10600
N        191.10600      114.53400      147.93000
C        190.39600      113.26200      147.95700
C        189.58300      113.05700      146.68900
O        188.58700      112.33600      146.69500
C        189.48700      113.18000      149.18100
O        190.22300      112.83400      150.33900
N         97.32000      123.88100      152.95000
C         96.59600      124.98100      152.32600
C         96.07900      125.95100      153.37400
O         95.91600      127.13900      153.10700
C         95.44800      124.45200      151.48700
N         95.82500      125.43300      154.57300
C         95.26200      126.20800      155.67200
C         96.24200      126.19600      156.83400
O         96.40200      125.17100      157.50400
C         93.91700      125.63700      156.10000
C         92.84400      125.83300      155.09800
C         92.36400      124.91100      154.22300
C         92.10900      127.03300      154.86500
N         91.36800      125.46100      153.45900
C         91.19400      126.76600      153.83500
C         92.13500      128.30800      155.42900
C         90.31600      127.72500      153.35600
C         91.26500      129.25600      154.95500
C         90.36700      128.96300      153.92800
N         96.88300      127.33300      157.08400
C         97.85100      127.40100      158.16100
C         97.37500      128.34000      159.26500
O         96.66800      129.31400      158.99600
C         99.22500      127.84900      157.64000
C         99.17400      129.15800      156.86900
O         98.20200      129.90200      156.93400
N        100.23800      129.43700      156.12100
N         97.72300      128.05800      160.51800
C         97.24600      128.90400      161.61500
C         97.85000      130.29100      161.54100
O         99.05000      130.45800      161.32200
C         97.70900      128.15800      162.86900
C         98.83500      127.31200      162.40700
C         98.50100      126.91100      161.00900
N         96.99600      131.29200      161.72000
C         97.43200      132.67300      161.61900
C         97.01300      133.46500      162.84500
O         97.69700      134.41500      163.23600
C         96.86700      133.31900      160.35600
C         97.39500      134.71000      160.08800
C         98.72900      134.66300      159.36700
C         98.91500      135.88300      158.48100
N        100.32600      136.35200      158.47300
N         95.90200      133.08900      163.46900
C         95.39000      133.84900      164.59600
C         94.92100      132.91900      165.70200
O         94.43000      131.81800      165.44600
C         94.24200      134.75600      164.16700
C         94.61500      135.74000      163.08800
C         95.39200      136.84900      163.37200
C         94.18900      135.56000      161.78500
C         95.73100      137.75500      162.38700
C         94.52200      136.45900      160.79500
C         95.29400      137.55300      161.10000
O         95.62900      138.44700      160.11200
N         95.06600      133.38500      166.94100
C         94.54200      132.68300      168.11100
C         93.87600      133.73300      168.99300
O         94.53800      134.38200      169.80800
C         95.63800      131.93600      168.85600
O         96.41200      131.17500      167.92300
C         95.03000      130.98900      169.86600
N         92.56600      133.89600      168.81900
C         91.79100      134.93800      169.48900
C         91.58000      134.54400      170.95000
O         90.52600      134.05900      171.36300
C         90.46900      135.15300      168.77000
C         90.45400      136.06400      167.54200
C         91.44300      135.61300      166.48500
C         89.06300      136.09600      166.95500
N         92.62600      134.76900      171.74200
C         92.62400      134.39300      173.15300
C         92.25000      135.61200      173.98800
O         93.09900      136.38400      174.43300
C         93.98500      133.84200      173.55800
C         94.04500      133.30200      174.97400
C         95.35900      132.58600      175.23000
N         96.45500      133.52200      175.44800
C         96.87900      133.91200      176.64600
N         97.88700      134.77100      176.75000
N         96.29900      133.43900      177.74200
N         90.94500      135.81300      174.16600
C         90.48500      136.74900      175.18300
C         89.22800      136.27300      175.89700
O         88.64300      137.04700      176.66400
C         90.24100      138.13900      174.60300
O         89.40300      138.89400      175.45800
N         88.77800      135.05000      175.66000
C         87.63700      134.50400      176.37300
C         88.12200      133.54400      177.44500
O         89.06900      132.78100      177.23100
C         86.68300      133.79000      175.42400
C         85.59900      134.67000      174.89500
N         84.55400      135.11400      175.67400
C         85.39900      135.19200      173.66400
C         83.75700      135.87500      174.94600
N         84.24800      135.93800      173.72200
N         87.46900      133.59100      178.60400
C         87.92000      132.80200      179.74200
C         87.43300      131.36500      179.64400
O         88.23500      130.43200      179.53200
C         87.44500      133.46200      181.03200
C         87.67500      134.93400      181.05300
C         88.95100      135.44200      181.19800
C         86.62800      135.81200      180.89400
C         89.17100      136.79900      181.20600
C         86.84000      137.16900      180.90100
C         88.11400      137.66300      181.05300
N         86.12300      131.16800      179.66300
C         85.54900      129.83700      179.57600
C         85.13100      129.54900      178.13900
O         85.00300      130.45400      177.31200
C         84.36300      129.69300      180.53500
C         83.88700      128.26300      180.65900
O         82.69100      128.00900      180.41800
O         84.71600      127.38900      180.99000
N         84.93300      128.26500      177.85600
C         84.70500      127.75700      176.51800
C         83.83200      128.58600      175.60000
O         82.76900      129.07800      175.99000
N         84.29600      128.74100      174.36500
C         83.60400      129.51500      173.34400
C         82.66400      128.57100      172.59900
O         83.07800      127.82100      171.71400
C         84.59900      130.20900      172.41800
C         85.22500      131.38700      173.14800
C         85.70400      129.22700      172.02800
N         81.38200      128.61400      172.96100
C         80.42800      127.63600      172.44700
C         80.17200      127.82500      170.95800
O         80.08600      126.84700      170.20900
C         79.11100      127.71500      173.22200
C         79.16100      127.12000      174.61700
C         79.52900      125.64700      174.60400
N         78.66900      124.87300      173.71700
C         78.44400      123.57000      173.84600
N         77.64400      122.94900      172.99300
N         79.01100      122.88900      174.83100
N         80.02300      129.06500      170.50600
C         79.64800      129.30600      169.12200
C         80.51200      130.40400      168.52400
O         81.10000      131.21800      169.23600
C         78.16800      129.68600      168.99900
N         80.56900      130.42400      167.19600
C         81.32200      131.44500      166.48500
C         80.82500      131.50000      165.05100
O         80.38200      130.49300      164.49500
C         82.83100      131.17200      166.52800
C         83.45500      130.21900      165.50900
C         84.95100      130.22000      165.68400
C         82.92100      128.80900      165.65100
N         80.89600      132.68900      164.46200
C         80.41800      132.86900      163.10100
C         81.10700      134.07100      162.47600
O         81.38700      135.06900      163.14700
C         78.89800      133.04000      163.05900
N         81.35900      133.96300      161.17700
C         82.08700      134.97300      160.42900
C         81.13000      135.95700      159.77900
O         80.03500      135.58500      159.35000
C         82.95300      134.33000      159.35300
C         84.39800      134.29300      159.69400
C         85.03200      135.42300      160.16100
C         85.12800      133.13600      159.53300
C         86.36500      135.39800      160.47000
C         86.46100      133.10300      159.84200
C         87.08300      134.23700      160.31200
N         81.55800      137.21200      159.70200
C         80.79600      138.20900      158.97700
C         80.78500      137.87300      157.48700
O         81.74900      137.30900      156.96400
C         81.39200      139.59200      159.19800
C         80.52400      140.69700      158.70100
N         80.46600      141.05400      157.37300
C         79.65800      141.50800      159.34900
C         79.60700      142.04500      157.22500
N         79.10700      142.34300      158.41000
N         79.70000      138.19600      156.78000
C         79.64500      137.85400      155.34800
C         80.73800      138.50000      154.50900
O         81.39100      137.80800      153.71900
C         78.24600      138.33100      154.94200
C         77.45100      138.22800      156.18800
C         78.38500      138.61700      157.29200
N         80.96100      139.80700      154.65300
C         81.89800      140.54400      153.81300
C         83.08400      141.07200      154.61400
O         84.24000      140.90500      154.21400
C         81.19500      141.69300      153.05600
C         80.26200      142.45400      153.97700
C         82.22300      142.63400      152.45500
N         82.81700      141.71700      155.75000
C         83.88400      142.30100      156.54400
C         84.84800      141.22300      157.02600
O         84.49100      140.04600      157.11200
C         83.31300      143.04200      157.75000
C         82.24700      144.06300      157.43000
C         81.39800      144.40000      158.64100
O         81.54700      143.72300      159.67800
O         80.58200      145.34100      158.55800
N         86.08000      141.60100      157.34000
C         86.99200      140.68800      158.04700
C         86.75700      140.72600      159.55700
O         87.61500      141.14700      160.34000
C         88.36800      141.23000      157.64700
C         88.14600      142.68800      157.48300
C         86.75100      142.85100      156.94000
N         85.57200      140.28500      159.97100
C         85.13500      140.38000      161.35600
C         84.52800      139.05000      161.77700
O         83.80800      138.41000      161.00400
C         84.13000      141.53400      161.54400
C         83.17100      141.24300      162.68000
C         84.87300      142.83000      161.79500
N         84.82500      138.64000      163.00600
C         84.41500      137.35100      163.54400
C         83.72400      137.56500      164.88000
O         84.21900      138.32300      165.71700
C         85.63000      136.43800      163.70800
C         85.53600      135.20900      164.60600
C         84.38800      134.31200      164.19000
C         86.84500      134.45000      164.56200
N         82.59100      136.90100      165.09000
C         81.84300      137.01100      166.33400
C         81.92500      135.68000      167.06200
O         81.72500      134.62000      166.45700
C         80.38600      137.41900      166.07800
C         79.58600      137.33700      167.35700
C         80.34000      138.82300      165.52000
N         82.21900      135.73500      168.36000
C         82.50200      134.55500      169.16700
C         81.69400      134.62200      170.45200
O         81.91500      135.51400      171.27400
C         83.99200      134.47000      169.49700
O         84.41400      135.69600      170.10700
C         84.80200      134.23300      168.24300
N         80.76800      133.68400      170.62400
C         79.97600      133.56600      171.83700
C         80.53200      132.44100      172.69600
O         80.78300      131.33900      172.19600
C         78.51000      133.30000      171.50800
N         80.71000      132.71900      173.98000
C         81.30000      131.78000      174.92000
C         80.30500      131.47700      176.03600
O         79.15500      131.91800      176.01100
C         82.60300      132.34300      175.48800
O         82.38000      133.60500      176.08800
N         80.76400      130.71600      177.02500
C         79.99400      130.45900      178.23000
C         80.19700      131.53000      179.28800
O         79.68200      131.39400      180.40100
C         80.35000      129.09200      178.80000
C         80.40600      127.99400      177.76700
C         80.34900      126.61700      178.38300
O         79.91400      126.50600      179.54600
O         80.73600      125.64400      177.70500
N         80.93500      132.58500      178.96800
C         81.13700      133.70400      179.87400
C         79.92500      134.61000      179.96200
O         80.02200      135.67900      180.56600
C         82.34700      134.52000      179.42900
C         83.46900      133.65400      178.91500
O         83.78400      132.64100      179.57200
O         84.04300      133.98500      177.85700
N         78.80400      134.20300      179.36800
C         77.58400      134.99900      179.26300
C         77.82700      136.22000      178.38600
O         76.95300      137.08300      178.25900
C         77.05900      135.43700      180.63600
C         77.42800      134.51200      181.75000
N         77.39600      133.14400      181.62700
C         77.83100      134.76400      183.01600
C         77.76900      132.59100      182.76700
N         78.03800      133.55300      183.62700
N         79.00600      136.30500      177.77900
C         79.37000      137.43400      176.94300
C         80.00500      136.93000      175.65900
O         80.69000      135.90400      175.65000
C         80.32900      138.39500      177.66700
O         80.54100      139.55800      176.86100
C         81.66300      137.73200      177.93400
N         79.75300      137.65000      174.57400
C         80.32900      137.34700      173.27700
C         81.07300      138.56600      172.76100
O         80.76000      139.70600      173.11400
C         79.26700      136.91300      172.26800
C         78.18100      137.88400      171.83400
C         77.59200      137.41500      170.52900
C         77.10200      137.94500      172.88200
N         82.06500      138.31000      171.92500
C         82.99600      139.33500      171.49500
C         83.12000      139.34600      169.98300
O         83.15200      138.29500      169.33700
C         84.36300      139.12300      172.13000
C         84.37300      139.36000      173.62400
C         85.77200      139.64600      174.11500
C         86.54500      138.36000      174.29900
N         86.22300      137.68800      175.58500
N         83.19900      140.54900      169.43700
C         83.39500      140.78600      168.01800
C         84.82300      141.25300      167.78800
O         85.29800      142.16400      168.47500
C         82.38900      141.81700      167.50600
C         82.68700      142.57700      166.21900
C         81.39100      142.90000      165.51400
C         83.41500      143.86400      166.53700
N         85.48300      140.63900      166.81100
C         86.88300      140.86000      166.50100
C         87.02700      141.29000      165.05200
O         86.27700      140.84100      164.18200
C         87.70900      139.59300      166.69700
C         87.47300      138.87100      167.96500
C         86.33700      138.22700      168.34700
C         88.42000      138.67500      169.01400
N         86.51300      137.65600      169.58200
C         87.78700      137.91800      170.01000
C         89.74400      139.06900      169.20600
C         88.42800      137.55700      171.18100
C         90.37500      138.71100      170.36500
C         89.72100      137.96200      171.33700
N         88.01900      142.13600      164.79400
C         88.36100      142.56200      163.44500
C         89.82900      142.26100      163.18800
O         90.66900      142.44700      164.07400
C         88.08500      144.05000      163.24100
C         88.68400      144.57500      161.95600
O         89.74000      145.20500      161.96100
N         88.01900      144.30300      160.84200
N         90.13200      141.80700      161.97800
C         91.48500      141.39400      161.63700
C         92.13500      142.35000      160.64500
O         92.90200      143.23300      161.02900
C         91.46900      139.98000      161.06800
C         90.43400      139.08600      161.74500
C         90.26400      137.78700      160.99100
C         90.82700      138.82100      163.17800
N         96.97300      136.79500      168.42600
C         97.72300      137.99800      168.76400
C         96.90100      139.25100      168.49800
O         97.43500      140.35900      168.47200
C         99.03000      138.05000      167.97600
C         98.82700      137.79200      166.49800
O         98.77000      136.61000      166.10000
O         98.72800      138.77200      165.73400
N         95.59900      139.06900      168.30400
C         94.68600      140.16700      168.01800
C         93.77500      140.37300      169.21700
O         93.52700      139.45400      170.00400
C         93.86000      139.91300      166.74000
C         94.74800      139.35500      165.64900
C         92.71000      138.97600      167.02500
N         93.28400      141.59400      169.35600
C         92.45000      141.94700      170.48600
C         91.01000      142.15800      170.04000
O         90.76400      142.59400      168.91200
C         92.96300      143.22100      171.16400
C         94.40900      143.12600      171.59000
C         94.58500      143.30300      173.08000
O         93.57300      143.23600      173.80900
O         95.73500      143.50700      173.52100
N         90.03500      141.86300      170.89300
C         88.63900      141.99200      170.47800
C         88.25700      143.44800      170.29700
O         88.85900      144.35700      170.87000
C         87.87000      141.35400      171.63400
C         88.72300      141.63000      172.80800
C         90.14500      141.53100      172.32200
N         87.23400      143.66200      169.47600
C         86.78000      145.00200      169.16500
C         85.51800      145.37900      169.93100
O         85.30800      146.56500      170.21100
C         86.56500      145.15700      167.64800
C         87.79200      144.65700      166.89000
C         86.31800      146.60000      167.28900
C         89.09300      145.25400      167.37600
N         84.68000      144.41400      170.29000
C         83.50000      144.72900      171.07900
C         83.14700      143.54000      171.95300
O         83.42800      142.39300      171.60500
C         82.31000      145.10500      170.19300
C         81.14100      145.66100      170.96600
C         81.17600      146.95000      171.47300
C         80.00600      144.89900      171.19200
C         80.11400      147.46400      172.18300
C         78.94000      145.40600      171.90000
C         78.99900      146.68900      172.39400
O         77.94100      147.20400      173.10200
N         82.53200      143.82700      173.09600
C         82.03800      142.81100      174.01000
C         80.59600      143.13500      174.34900
O         80.24300      144.30100      174.54200
C         82.86200      142.74800      175.29600
O         82.44600      143.79800      176.17700
C         84.34100      142.91300      174.99500
N         79.76400      142.10700      174.42400
C         78.33400      142.28800      174.61700
C         77.97300      141.99000      176.06400
O         78.10800      140.85200      176.52300
C         77.54600      141.40300      173.65700
C         77.70700      141.79500      172.22100
C         76.83000      142.68500      171.63500
C         78.74400      141.29100      171.46100
C         76.97700      143.05500      170.32100
C         78.89200      141.65800      170.14300
C         78.00900      142.54200      169.57400
N         77.50400      143.01300      176.77100
C         77.17000      142.92700      178.18900
C         75.67100      142.84500      178.41400
O         75.13500      143.52100      179.29300
C         77.75100      144.11700      178.94500
C         79.18700      144.42400      178.61400
C         80.11200      143.38500      179.17600
N         81.49300      143.68000      178.83400
C         82.50200      142.85600      179.07200
N         83.73300      143.20000      178.72900
N         82.27700      141.68100      179.63900
N         74.96300      142.06200      177.61400
C         73.51600      141.96800      177.73400
C         73.01000      140.57400      178.05400
O         71.90500      140.44400      178.57700
C         72.84400      142.45500      176.44600
N         73.77900      139.53400      177.75900
C         73.32500      138.17500      177.99800
C         73.74600      137.70900      179.38400
O         74.85300      137.99700      179.84500
C         73.88200      137.23700      176.93200
C         73.03200      136.03100      176.68200
N         73.05700      135.33600      175.49300
C         72.13800      135.39200      177.47200
C         72.21300      134.32200      175.56000
N         71.64300      134.33300      176.75100
N         72.84300      137.00200      180.05500
C         73.11900      136.37500      181.34000
C         73.12200      134.86800      181.13400
O         72.41100      134.33900      180.27400
C         72.08500      136.78100      182.40800
C         71.61500      138.21800      182.17400
C         72.66300      136.63100      183.79800
C         70.50800      138.65300      183.09600
N         73.93800      134.17100      181.91700
C         74.07800      132.74200      181.75800
C         74.85500      132.40800      180.50300
O         74.90200      133.19000      179.55000
N         75.50400      131.24600      180.48900
C         76.36300      130.89700      179.35300
C         75.59400      130.90300      178.03900
O         74.44400      130.46300      177.96600
C         76.86100      129.49200      179.71000
C         76.79700      129.44300      181.18700
C         75.58700      130.24700      181.56600
N         76.23700      131.42300      177.00500
C         75.65800      131.50900      175.67200
C         75.89600      130.19800      174.94400
O         76.99300      129.63300      174.99500
C         76.25800      132.69200      174.89600
C         75.52900      132.88300      173.58300
C         76.20100      133.95100      175.74100
N         74.86600      129.70700      174.26000
C         74.94800      128.43900      173.55100
C         74.99400      128.60400      172.04100
O         75.87600      128.04500      171.38400
C         73.76300      127.54100      173.93300
C         73.73100      126.97900      175.35300
C         72.49200      126.12900      175.55100
C         74.98200      126.17500      175.63700
N         74.06600      129.36600      171.46900
C         73.90200      129.42800      170.02700
C         73.88300      130.87300      169.55600
O         73.45000      131.77600      170.27800
C         72.61800      128.72000      169.59700
O         71.54800      129.05300      170.46200
N         74.33900      131.07300      168.32100
C         74.52200      132.40100      167.75400
C         74.25100      132.34900      166.25700
O         74.50400      131.33500      165.60100
C         75.94000      132.91700      168.01900
C         76.48200      134.04100      167.13600
C         75.84000      135.36300      167.49600
C         77.98700      134.12500      167.24600
N         73.72700      133.45100      165.72600
C         73.52200      133.59600      164.29500
C         73.73900      135.05100      163.91400
O         73.53300      135.95600      164.72600
C         72.12400      133.13600      163.87600
N         74.16400      135.27000      162.67300
C         74.42200      136.61100      162.16400
C         73.35000      136.96300      161.14600
O         72.92900      136.12400      160.34100
C         75.82200      136.74100      161.52900
C         76.89500      136.16200      162.44300
C         76.13800      138.19300      161.23100
C         78.29500      136.40100      161.93400
N         72.90400      138.21700      161.18400
C         72.01800      138.71600      160.14300
C         72.76400      138.72200      158.81800
O         73.84500      139.30700      158.70700
C         71.52300      140.11800      160.48200
O         72.58400      141.05500      160.41300
N         72.18300      138.06100      157.81400
C         72.89000      137.84200      156.55700
C         73.30000      139.14900      155.89800
O         74.28300      139.18200      155.15000
C         72.02500      137.01700      155.60900
O         72.10800      135.63900      155.92500
N         72.57100      140.23400      156.16000
C         73.01500      141.53800      155.69000
C         74.33500      141.95100      156.32200
O         75.04400      142.79100      155.75800
C         71.95100      142.59400      155.98300
C         71.52100      142.60200      157.43600
O         72.30400      142.29200      158.33500
N         70.26500      142.95600      157.67400
N         74.67400      141.38400      157.47700
C         75.89900      141.73800      158.16200
C         75.77700      142.93100      159.07600
O         76.72800      143.71000      159.19800
N         74.62300      143.11500      159.71400
C         74.42200      144.24500      160.60700
C         73.82000      143.88100      161.95300
O         73.86900      144.71100      162.86600
C         73.53500      145.30500      159.93900
C         74.19800      145.99100      158.76900
C         75.50600      146.63800      159.15100
O         75.58900      147.20900      160.25700
O         76.45500      146.57400      158.34400
N         73.25900      142.68700      162.11800
C         72.64900      142.29100      163.37700
C         73.09300      140.88700      163.75900
O         73.42700      140.05800      162.91000
C         71.12000      142.34300      163.30500
C         70.55700      143.71300      163.00600
C         70.50700      144.00200      161.52700
O         71.08000      143.27200      160.72000
N         69.81200      145.06800      161.15900
N         73.08200      140.63300      165.06100
C         73.46700      139.34500      165.61200
C         72.42200      138.90700      166.62200
O         71.97200      139.70600      167.44900
C         74.84200      139.40400      166.27600
S         75.02000      140.76100      167.44200
N         72.03300      137.64000      166.53400
C         71.09000      137.02700      167.45300
C         71.81100      135.97100      168.27400
O         72.63700      135.22000      167.74800
C         69.91500      136.40100      166.70000
C         69.20900      137.35700      165.79300
C         68.15200      138.11800      166.25600
C         69.60600      137.49900      164.47900
C         67.50700      139.00300      165.42400
C         68.96700      138.38000      163.64400
C         67.91600      139.13500      164.11600
N         71.50100      135.92000      169.56500
C         72.13500      134.97000      170.46500
C         71.07900      134.34600      171.35700
O         70.07900      134.98100      171.69300
C         73.19200      135.63200      171.34400
O         72.64900      136.77200      171.97400
N         71.32200      133.10200      171.75300
C         70.42900      132.42700      172.67000
C         71.12700      131.30700      173.40700
O         71.71500      130.41800      172.78600
N         71.06100      131.33400      174.73300
C         71.76800      130.35700      175.53100
C         71.03100      129.93300      176.78200
O         69.84200      129.61300      176.73400
N         71.73800      129.94000      177.91300
C         71.17800      129.41800      179.15600
C         69.97900      130.24300      179.60300
O         68.97900      129.69900      180.08700
C         72.27000      129.36300      180.23800
C         73.04200      128.05000      180.12800
C         71.67600      129.52200      181.62400
C         72.15200      126.83400      180.19900
N         70.04000      131.56000      179.42000
C         69.02400      132.45800      179.96000
C         67.63900      132.22200      179.37200
O         66.68500      132.91100      179.74500
C         69.42900      133.91100      179.73000
C         68.85500      134.84300      180.77300
O         67.73700      135.35700      180.56600
O         69.51600      135.05100      181.80900
N         67.51800      131.27200      178.44600
C         66.25000      130.93200      177.80600
C         65.64900      132.10700      177.04700
O         64.47100      132.07600      176.67700
C         65.24000      130.39400      178.82500
N         66.43900      133.14800      176.81000
C         66.01000      134.30900      176.05100
C         66.96700      134.51200      174.88800
O         68.04900      133.92100      174.83900
C         65.95900      135.57500      176.92000
O         65.44300      136.66700      176.14900
C         67.34800      135.93000      177.42000
N         66.56000      135.35400      173.94300
C         67.36400      135.65600      172.76900
C         67.63000      137.15100      172.74000
O         66.73800      137.95800      173.01600
C         66.67200      135.19200      171.47100
C         66.66700      133.66500      171.39100
C         67.34900      135.79100      170.25300
C         66.37300      133.13100      170.01300
N         68.86100      137.51500      172.42600
C         69.23600      138.91000      172.28300
C         69.55700      139.20300      170.82600
O         69.95100      138.31600      170.06600
C         70.43100      139.25200      173.17700
C         70.05400      139.59600      174.60900
C         69.26800      138.49400      175.29200
O         69.54900      137.31100      175.11200
N         68.27200      138.88100      176.08100
N         69.39300      140.46700      170.44600
C         69.50400      140.88500      169.05400
C         70.17000      142.25100      169.04400
O         69.52000      143.26300      169.32500
C         68.12300      140.92200      168.39600
C         68.01200      141.70900      167.12300
C         69.01400      142.02500      166.25500
C         66.81300      142.26200      166.56600
N         68.51800      142.75100      165.20300
C         67.16800      142.90800      165.36800
C         65.47400      142.27400      166.96600
C         66.23700      143.56200      164.56800
C         64.55100      142.92500      166.17300
C         64.93600      143.55900      164.98700
N         71.46000      142.27600      168.72500
C         72.23300      143.50800      168.69600
C         72.47400      143.95300      167.26600
O         72.48500      143.14200      166.33800
C         73.59400      143.36000      169.36800
C         73.56100      142.96300      170.78800
C         73.41300      143.78000      171.86600
C         73.71000      141.64300      171.30000
N         73.45100      143.04500      173.02200
C         73.63200      141.72700      172.70000
C         73.89600      140.39400      170.70900
C         73.73200      140.61300      173.51600
C         73.99700      139.29500      171.51700
C         73.91200      139.40600      172.90700
N         72.67200      145.25500      167.10500
C         73.19300      145.81700      165.86500
C         74.69800      145.94400      166.03600
O         75.18000      146.85900      166.70600
C         72.55000      147.16600      165.57100
C         71.09700      147.21700      165.98300
O         70.20000      147.01000      165.17100
N         70.85700      147.50500      167.25600
N         75.44600      145.01100      165.45700
C         76.89000      145.01900      165.62900
C         77.46000      146.35000      165.15300
O         77.12100      146.81400      164.05900
C         77.54800      143.88500      164.84400
C         77.03200      143.73200      163.42400
S         77.44100      142.14600      162.67500
C         76.47500      141.03300      163.67800
N         78.30600      146.99800      165.94400
C         79.00300      148.18000      165.44100
C         79.90200      147.79900      164.27900
O         80.44400      146.69400      164.21800
C         79.81100      148.66000      166.65000
C         79.08700      148.10400      167.82300
C         78.56700      146.77300      167.37200
N         80.04000      148.72700      163.33900
C         80.85600      148.47400      162.16800
C         82.31000      148.26500      162.58000
O         82.70900      148.64300      163.68200
C         80.75700      149.64000      161.19100
O         81.87300      150.50100      161.32200
N         83.11800      147.64600      161.72400
C         84.55100      147.57100      162.01000
C         85.14400      148.96200      162.14300
O         84.54100      149.95900      161.74100
C         85.11900      146.83000      160.79600
C         83.97900      146.03100      160.29000
C         82.75100      146.85500      160.54000
N         86.33400      149.01700      162.73200
C         87.11800      150.21400      163.02000
C         86.51800      151.00600      164.17600
O         86.95400      152.13600      164.41100
C         87.28100      151.14300      161.80500
O         87.51000      150.39400      160.62500
N         85.53500      150.46600      164.89500
C         85.06400      151.13300      166.10000
C         86.11000      150.99000      167.20000
O         87.02500      150.16000      167.12100
C         83.70600      150.57200      166.55700
C         82.59900      151.03200      165.62500
C         83.75900      149.06000      166.63200
N         85.98200      151.80700      168.22000
C         86.89900      151.70600      169.34600
C         86.39500      150.65600      170.32600
O         85.23400      150.72000      170.74400
C         87.02900      153.04600      170.05400
C         88.18300      153.08400      171.03800
O         88.84300      154.13900      171.12600
O         88.43000      152.07600      171.73300
N         87.21900      149.67700      170.70400
C         86.79300      148.75800      171.76800
C         86.59700      149.45800      173.09400
O         85.66300      149.13200      173.83600
C         87.93200      147.73200      171.82000
C         88.58200      147.82100      170.48500
C         88.49300      149.26300      170.10000
N         87.45600      150.42300      173.41300
C         87.32800      151.18500      174.65000
C         86.64600      152.50800      174.32600
O         87.25900      153.57600      174.28900
C         88.68900      151.38300      175.30000
C         89.46300      150.09700      175.46500
C         88.81900      148.91900      175.81500
C         90.83400      150.06100      175.27100
C         89.51900      147.74300      175.96500
C         91.54100      148.88800      175.42300
C         90.88100      147.73500      175.76900
O         91.58400      146.56300      175.91800
N         85.34000      152.42500      174.09300
C         84.53900      153.56700      173.68800
C         83.36100      153.73000      174.63500
O         83.14500      152.92200      175.54100
C         84.02700      153.40700      172.25600
C         83.01800      152.28800      172.12800
O         81.95400      152.51000      171.51700
O         83.28500      151.18600      172.65100
N         82.59500      154.79300      174.41100
C         81.40400      155.03600      175.21000
C         80.33900      153.99600      174.89700
O         80.03900      153.72800      173.73200
C         80.86400      156.43400      174.93600
O         80.37100      156.49500      173.59300
C         81.96300      157.46400      175.11100
N         79.77000      153.41300      175.94500
C         78.74500      152.39600      175.77100
C         77.49600      152.99600      175.14000
O         77.04300      154.07700      175.52300
C         78.41300      151.76000      177.12000
C         77.03000      151.16800      177.22800
C         76.63200      150.12000      176.41400
C         76.12800      151.64800      178.16400
C         75.37200      149.58000      176.51800
C         74.86800      151.11300      178.27600
C         74.49500      150.07900      177.45300
O         73.23500      149.54400      177.56200
N         76.94200      152.28500      174.16200
C         75.74000      152.71300      173.46000
C         74.60600      151.76100      173.80400
O         74.64500      150.58800      173.39700
C         75.97200      152.75700      171.94800
C         76.93600      153.84400      171.49900
C         77.19500      153.80900      170.00400
O         76.77800      152.83000      169.35000
O         77.81700      154.75900      169.48500
N         73.58800      152.20300      174.54200
C         72.54000      151.26700      174.97200
C         71.66200      150.77700      173.84100
O         71.00900      149.73900      173.99500
C         71.72900      152.08500      175.98800
C         72.56600      153.30400      176.28700
C         73.36600      153.56000      175.05900
N         71.62500      151.48500      172.71300
C         70.72600      151.10000      171.63100
C         71.14400      149.77900      171.00100
O         70.32900      149.11000      170.35400
C         70.68200      152.20200      170.57400
C         72.02000      152.41000      169.89900
O         72.49200      151.55600      169.14800
N         72.64600      153.54800      170.17000
N         72.41300      149.40300      171.16100
C         72.98200      148.21800      170.52600
C         72.06400      147.02300      170.72400
O         71.69600      146.34700      169.75900
C         74.39000      147.92400      171.06600
C         74.87900      146.59500      170.53800
C         75.34000      149.03300      170.66600
N         71.66300      146.76700      171.96600
C         70.66200      145.74000      172.23700
C         69.28100      146.25200      171.83000
O         68.43800      146.61200      172.65100
C         70.69100      145.32400      173.70000
C         69.76600      144.14200      173.99400
C         70.18000      142.93000      173.18200
C         69.72600      143.81700      175.47400
N         69.06700      146.29800      170.51700
C         67.78700      146.77000      170.00800
C         66.68500      145.75400      170.26400
O         65.57200      146.12000      170.65600
C         67.89500      147.07700      168.51700
N         66.97600      144.47300      170.06200
C         65.96600      143.43300      170.09200
C         66.16500      142.47700      171.25600
O         67.29000      142.08600      171.56900
N         65.05100      142.09200      171.86800
C         65.02700      141.06300      172.89300
C         63.83000      140.16000      172.64300
O         62.70600      140.64300      172.48100
C         64.95600      141.67400      174.28800
O         65.81200      142.82100      174.34200
C         65.41000      140.66600      175.32300
N         64.07800      138.85600      172.60100
C         63.07300      137.85900      172.26900
C         62.85000      136.96400      173.47700
O         63.79600      136.35100      173.98700
C         63.50500      137.02300      171.06000
C         63.31400      137.56700      169.64000
C         63.92400      138.94800      169.45600
C         63.91500      136.59800      168.63800
N         61.60200      136.89500      173.93000
C         61.20700      136.07400      175.06600
C         60.30100      134.96600      174.55200
O         59.19100      135.23500      174.07900
C         60.49500      136.90700      176.14500
C         60.42600      136.13200      177.44800
C         61.20200      138.24100      176.33600
N         60.77200      133.72900      174.64400
C         60.03900      132.61400      174.08300
C         59.98200      131.40700      174.99100
O         59.52900      131.50300      176.13500
N         60.42000      130.26100      174.47900
C         60.43700      129.04200      175.26900
C         61.24500      129.24000      176.54500
O         62.28400      129.90500      176.55600
C         61.01200      127.88800      174.45200
C         62.08500      128.30400      173.49800
N         63.19900      129.01000      173.89400
C         62.21200      128.11600      172.16400
C         63.96700      129.23900      172.84500
N         63.39100      128.70600      171.78200
N         60.75200      128.64600      177.63100
C         61.33500      128.90300      178.94200
C         62.64400      128.15000      179.13200
O         63.26800      128.24200      180.19500
C         60.34100      128.52500      180.03800
O         60.98500      128.60300      181.31500
C         59.81700      127.11400      179.82200
N         63.07600      127.40100      178.12400
C         64.28700      126.61500      178.26800
C         65.44400      127.22700      177.48500
O         65.27000      128.11600      176.64800
C         64.05400      125.18600      177.80700
C         64.82800      124.19700      178.61000
O         65.95400      124.54200      179.01900
O         64.31500      123.08100      178.82700
N         66.64100      126.71500      177.75800
C         67.84300      127.23300      177.12600
C         67.80700      127.00800      175.62000
O         67.37800      125.95900      175.13400
C         69.08500      126.57200      177.72000
N         68.28000      128.00700      174.88200
C         68.28300      127.96600      173.42500
C         69.51500      127.19100      172.97400
O         70.63400      127.70500      173.02600
C         68.26900      129.37500      172.82700
C         67.99700      129.31100      171.34200
C         67.23500      130.23700      173.52700
N         69.31200      125.95300      172.52500
C         70.41700      125.12200      172.06700
C         70.75000      125.32500      170.59800
O         71.90600      125.12900      170.21000
C         70.10800      123.64000      172.30800
C         70.63200      123.12800      173.61200
C         69.89900      122.69500      174.67800
C         72.00500      123.00200      173.99200
N         70.73200      122.30700      175.69700
C         72.03100      122.48600      175.30000
C         73.21600      123.27600      173.35300
C         73.21800      122.24200      175.97900
C         74.39100      123.02900      174.02700
C         74.38600      122.51800      175.32500
N         69.78100      125.71800      169.77600
C         70.03900      125.88200      168.35800
C         69.49400      127.17600      167.79500
O         68.34100      127.53200      168.04400
N         70.31300      127.89200      167.03400
C         69.92300      129.17000      166.45500
C         70.30100      129.17500      164.98500
O         71.40600      128.75300      164.62800
C         70.59900      130.34100      167.17600
C         69.97800      131.72000      166.96900
C         68.48200      131.63700      167.16900
C         70.58800      132.72500      167.91900
N         69.38900      129.64600      164.13600
C         69.65800      129.75100      162.71100
C         68.95600      130.97700      162.15100
O         67.83700      131.30800      162.54800
C         69.20600      128.49500      161.95500
N         69.62500      131.64900      161.22500
C         69.05700      132.79400      160.53500
C         68.46900      132.35800      159.20300
O         68.90400      131.37900      158.59400
C         70.11400      133.87300      160.31000
C         69.55300      135.20500      159.88400
C         68.82500      135.98600      160.76500
C         69.76000      135.68500      158.60400
C         68.32000      137.20500      160.38000
C         69.25800      136.90100      158.21100
C         68.54000      137.65700      159.10100
O         68.04000      138.87300      158.70400
N         67.46300      133.09700      158.75700
C         66.76600      132.79000      157.51900
C         67.18900      133.77000      156.43400
O         67.25100      134.98000      156.67300
C         65.25400      132.84500      157.72600
O         64.90300      132.29400      158.98100
N         67.47000      133.24600      155.24300
C         67.84400      134.08400      154.12200
C         66.73300      134.94200      153.56500
O         66.95400      135.64900      152.57700
N         65.54300      134.89500      154.16200
C         64.43200      135.74200      153.75600
C         64.40800      137.05300      154.53400
O         63.51900      137.88200      154.31900
C         63.09800      134.99300      153.88700
C         63.09800      134.12100      155.14300
C         62.85200      134.14200      152.65700
C         61.88900      133.22100      155.25800
N         65.36600      137.25400      155.43900
C         65.59900      138.52300      156.12600
C         64.39900      138.98400      156.94200
O         64.28100      140.17100      157.25800
C         66.01500      139.61900      155.14000
N         63.49800      138.07200      157.29000
C         62.38700      138.42000      158.16500
C         62.09400      137.37000      159.22000
O         61.28200      137.63600      160.10900
C         61.11200      138.66200      157.34700
C         60.75000      137.47800      156.48000
O         61.62500      136.76000      156.00700
N         59.45700      137.26500      156.27200
N         62.71000      136.19500      159.15700
C         62.41500      135.10000      160.06300
C         63.71800      134.54800      160.62100
O         64.80800      134.86300      160.13600
C         61.62200      133.99500      159.35100
C         60.11400      134.10300      159.51100
C         59.50200      135.14500      158.59700
O         59.38400      134.93500      157.39200
N         59.11000      136.27600      159.16800
N         63.59900      133.72100      161.65700
C         64.75700      133.00800      162.17900
C         64.28000      131.86100      163.05500
O         63.24700      131.96900      163.71800
C         65.68700      133.94000      162.96900
C         65.28300      134.39000      164.37000
C         65.99000      133.55600      165.41500
C         65.60300      135.85900      164.55800
N         65.03700      130.77100      163.05000
C         64.66800      129.57500      163.79000
C         65.41300      129.52400      165.11600
O         66.63400      129.71100      165.15800
C         64.97800      128.32400      162.97200
C         63.97500      127.93300      161.89300
C         64.37000      126.59500      161.32200
C         62.57300      127.87900      162.45800
N         64.67600      129.25400      166.19300
C         65.24700      129.09300      167.52800
C         64.71300      127.79300      168.11600
O         63.52200      127.68300      168.41400
C         64.90400      130.28100      168.41800
O         63.66100      130.07700      169.06600
N         65.58200      126.80300      168.25400
C         65.24400      125.58400      168.96400
C         65.87300      125.59700      170.34600
O         66.97200      126.12400      170.53800
C         65.70600      124.35400      168.18900
S         67.34000      123.72400      168.59700
N         65.16600      125.00700      171.29900
C         65.55900      125.00100      172.69500
C         65.52900      123.58100      173.23800
O         65.20700      122.62200      172.53300
C         64.63500      125.89900      173.52200
O         64.45200      125.36500      174.81700
N         65.88100      123.45900      174.51700
C         65.70000      122.20100      175.22200
C         64.25400      121.98300      175.63900
O         63.90600      120.87000      176.04800
C         66.61100      122.14800      176.44700
N         63.41100      123.01400      175.53900
C         61.99300      122.89800      175.86100
C         61.27300      121.85400      175.02500
O         60.17800      121.42800      175.40900
C         61.30200      124.25100      175.67000
C         60.94700      124.91400      176.98100
O         60.94600      124.21600      178.01600
O         60.68200      126.13200      176.98300
N         61.85000      121.42800      173.90700
C         61.12000      120.57800      172.99500
C         60.24800      121.32100      172.01600
O         59.47600      120.68700      171.29200
N         60.34500      122.64900      171.96800
C         59.49900      123.46900      171.10400
C         60.37200      124.40300      170.26500
O         61.02900      125.31100      170.78100
C         58.44400      124.22100      171.92400
O         57.48100      124.82600      171.04800
C         59.05000      125.25800      172.87900
N         60.41200      124.13800      168.96500
C         61.10000      125.00600      168.02000
C         60.19200      126.17300      167.67300
O         58.98300      126.00000      167.48300
C         61.49900      124.21900      166.76300
C         62.32900      125.09000      165.84300
C         62.24600      122.95800      167.15200
N         60.76700      127.36800      167.58600
C         59.99800      128.57000      167.32100
C         60.57300      129.31500      166.12800
O         61.78200      129.54800      166.04600
C         59.97200      129.49300      168.53700
C         59.67800      128.79400      169.84500
C         59.16900      129.78400      170.87600
N         58.48200      129.11700      171.97800
C         57.67800      129.73300      172.83700
N         57.09400      129.04700      173.80900
N         57.45400      131.03400      172.72000
N         59.69400      129.68300      165.20600
C         60.04500      130.56300      164.10700
C         59.65000      131.98400      164.47300
O         58.51800      132.23300      164.90300
C         59.34300      130.13000      162.82200
C         59.64400      130.95800      161.57600
C         61.13300      131.21000      161.46600
C         59.13800      130.24100      160.34400
N         60.58800      132.91000      164.29000
C         60.46100      134.26900      164.78400
C         60.51600      135.25800      163.63200
O         61.11600      134.99700      162.58500
C         61.57500      134.60900      165.77900
C         61.64700      133.69500      166.94800
C         62.06400      132.39900      166.94900
C         61.30100      134.00800      168.30000
N         61.99800      131.88300      168.21800
C         61.52900      132.85000      169.06600
C         60.81500      135.15300      168.93500
C         61.29100      132.80500      170.43300
C         60.58200      135.10800      170.29100
C         60.81900      133.94200      171.02600
N         59.90300      136.41400      163.86300
C         59.91400      137.53100      162.93200
C         60.27000      138.81000      163.67900
O         59.44400      139.34200      164.43000
C         58.55600      137.67800      162.24500
C         58.56600      138.71700      161.13400
O         59.45900      139.56200      161.05700
N         57.56100      138.66000      160.26900
N         61.48800      139.33600      163.50000
C         61.90600      140.60300      164.10700
C         61.20500      141.80500      163.48600
O         61.47200      142.11000      162.32400
C         63.41000      140.64900      163.82300
C         63.79200      139.24300      163.52100
C         62.60700      138.65200      162.83800
N         57.02000      139.87900      165.89900
C         56.43900      139.28400      167.10700
C         55.57000      138.06900      166.80100
O         54.85000      137.59100      167.67700
C         55.60000      140.42500      167.68600
C         56.27600      141.66000      167.20600
C         56.79400      141.33300      165.83600
N         55.64000      137.58100      165.56600
C         54.88900      136.41100      165.13000
C         55.79000      135.19000      165.21900
O         56.88700      135.18000      164.65000
C         54.36600      136.58500      163.70200
S         53.24800      135.27500      163.16100
N         55.32900      134.16800      165.93100
C         56.12800      132.98700      166.22000
C         55.30800      131.75400      165.87800
O         54.14600      131.64500      166.28500
C         56.57000      132.95300      167.69500
C         57.62200      134.02900      167.96000
C         57.10900      131.58600      168.06400
C         57.05400      135.33900      168.45500
N         55.90600      130.82900      165.13100
C         55.26700      129.56100      164.80000
C         56.02100      128.43700      165.49200
O         57.21100      128.23700      165.23400
C         55.23400      129.33000      163.28900
S         53.95200      128.17600      162.75300
N         55.33400      127.71000      166.36900
C         55.99300      126.75900      167.25200
C         55.69500      125.33500      166.80700
O         54.72500      125.06800      166.09500
C         55.55900      126.95000      168.70800
O         54.13900      127.12100      168.76300
C         56.22300      128.17600      169.29500
N         56.55800      124.42100      167.24300
C         56.48600      123.01200      166.87900
C         56.75600      122.16400      168.11300
O         57.85500      122.21400      168.67400
C         57.50200      122.67500      165.78500
C         57.48000      123.61200      164.60000
C         58.07900      124.86300      164.66700
C         56.87400      123.24100      163.41100
C         58.06200      125.71900      163.59200
C         56.85700      124.09000      162.32800
C         57.45200      125.32800      162.42400
O         57.43700      126.18100      161.34600
N         55.76500      121.37100      168.52000
C         55.83200      120.60600      169.76100
C         56.17500      119.13700      169.53900
O         55.57700      118.26600      170.18200
C         54.51200      120.72900      170.52600
C         54.63100      120.28100      171.96700
O         55.73200      120.06000      172.47200
N         53.49600      120.14000      172.63700
N         57.10900      118.83700      168.64400
C         57.51000      117.46400      168.39800
C         58.07100      116.76300      169.62200
O         57.35300      116.05500      170.32900
N         63.09400      116.73000      172.05000
C         64.53000      116.92300      172.20000
C         65.14900      117.50900      170.93800
O         66.01100      116.88900      170.31900
C         65.21800      115.60500      172.57500
C         64.52200      114.43500      171.88100
C         65.23200      115.42300      174.08000
C         65.03200      113.08500      172.30000
N         64.73100      118.71600      170.57300
C         65.25700      119.34000      169.35800
C         66.65700      119.87200      169.58600
O         66.82800      121.03000      169.97400
C         64.25800      120.46800      169.08200
C         63.63100      120.77500      170.41500
C         64.00100      119.68700      171.39800
N         67.66400      119.01700      169.40800
C         69.04100      119.45600      169.60500
C         69.42700      120.52700      168.59300
O         69.81200      121.64000      168.96900
C         69.99200      118.26500      169.51600
O         70.38000      118.06200      168.15200
C         69.31700      117.01000      170.03600
N         69.31800      120.21400      167.30400
C         69.72600      121.12200      166.24100
C         68.56300      121.33500      165.28400
O         67.91500      120.37300      164.86200
C         70.94400      120.57200      165.49000
O         71.59700      121.58400      164.74500
N         68.29500      122.59500      164.95800
C         67.25000      122.97300      164.01500
C         67.79600      124.07900      163.12900
O         68.35500      125.06200      163.62800
C         65.96200      123.41800      164.73000
C         64.90200      123.78300      163.72400
C         65.44500      122.28300      165.58000
N         67.64600      123.91400      161.81700
C         68.37000      124.74500      160.87000
C         67.45500      125.10800      159.71200
O         66.32400      124.62500      159.60800
C         69.62300      124.02700      160.35900
C         70.38900      123.32800      161.47000
O         70.62600      123.95000      162.53000
O         70.72200      122.13900      161.29300
N         67.97000      125.95900      158.83100
C         67.19100      126.56800      157.75900
C         67.80200      126.16400      156.42500
O         68.89000      126.61800      156.06700
C         67.15900      128.07000      157.92200
C         65.83200      128.67500      157.61500
C         64.96900      129.03200      158.63200
C         65.44400      128.88300      156.30800
C         63.74100      129.58500      158.35100
C         64.22100      129.44000      156.02000
C         63.36700      129.79300      157.04300
N         67.09700      125.30000      155.69700
C         67.53000      124.92500      154.35800
C         67.61500      126.18300      153.50800
O         66.76000      127.07200      153.60100
C         66.58100      123.88200      153.75900
C         66.72800      122.55800      154.51300
C         66.82300      123.70700      152.26900
C         66.20800      121.36400      153.76500
N         68.66000      126.27300      152.68400
C         68.92500      127.51800      151.98400
C         68.29500      127.58000      150.60700
O         67.81600      128.63600      150.18500
N         68.28500      126.45700      149.88600
C         67.81700      126.48100      148.50400
C         66.33800      126.83900      148.42800
O         65.92200      127.62400      147.56800
C         68.08200      125.14100      147.82500
S         67.31800      125.00800      146.19100
N         65.52300      126.27200      149.31700
C         64.14200      126.71500      149.48900
C         64.00600      127.11600      150.95100
O         64.27000      126.31100      151.85700
C         63.13800      125.64200      149.04500
C         62.75900      124.65300      150.14200
O         62.12000      125.05200      151.13500
O         63.08000      123.45800      149.99900
N         63.68700      128.37900      151.23000
C         63.45300      128.77200      152.62500
C         62.16000      128.21300      153.18000
O         61.85600      128.43800      154.35700
C         63.43000      130.30600      152.56100
C         64.13700      130.64200      151.27300
C         63.75400      129.54200      150.33600
N         61.38700      127.48900      152.37100
C         60.18400      126.84600      152.88300
C         60.53100      125.65000      153.75800
O         59.92900      125.45200      154.81900
C         59.28400      126.42200      151.72400
N         61.50500      124.84900      153.33800
C         61.88900      123.63900      154.05000
C         62.90700      123.96200      155.13300
O         63.79700      124.79300      154.93400
C         62.47400      122.60400      153.08800
C         61.45700      121.94800      152.21000
N         60.12600      122.30700      152.21400
C         61.57800      120.96200      151.29000
C         59.47000      121.56400      151.34100
N         60.32800      120.74100      150.76500
N         62.76300      123.30600      156.28400
C         63.71000      123.42600      157.38200
C         63.89600      122.06100      158.02800
O         63.04300      121.17500      157.92000
C         63.25000      124.44500      158.43100
C         63.42100      125.89400      158.01000
S         62.06000      126.51100      157.00500
C         60.67800      126.20700      158.09800
N         65.02500      121.90200      158.71000
C         65.41000      120.62300      159.28700
C         65.37900      120.72500      160.80400
O         65.37700      121.81300      161.38200
C         66.80100      120.17300      158.80400
C         66.87900      120.24500      157.29100
C         67.88000      121.02700      159.44500
N         65.35800      119.56300      161.45300
C         65.34800      119.50700      162.90900
C         66.02600      118.22200      163.35300
O         65.60100      117.13200      162.96200
C         63.91800      119.56900      163.44500
O         63.46400      120.92500      163.43600
C         63.85100      119.02900      164.86200
N         67.06600      118.34800      164.16900
C         67.70500      117.17700      164.74000
C         66.98500      116.74800      166.01400
O         66.07300      117.41800      166.50500
C         69.17500      117.45500      165.03800
O         69.65400      116.57400      166.03500
N         67.41400      115.61500      166.55800
C         66.79300      115.07400      167.75600
C         67.80000      114.19400      168.47400
O         68.66200      113.58500      167.83500
C         65.53200      114.28100      167.40900
C         64.26600      115.07800      167.52600
C         63.73600      115.38100      168.76400
C         63.61400      115.53500      166.39800
C         62.57300      116.11600      168.88000
C         62.45000      116.27200      166.50600
C         61.92900      116.56300      167.74900
N         67.69100      114.13900      169.79900
C         68.59300      113.32500      170.60100
C         68.27200      111.84700      170.44200
O         69.00400      110.98800      170.94400
C         68.51300      113.72900      172.07000
C         69.83900      113.60400      172.77100
O         70.55300      112.62000      172.59700
N         70.17900      114.60400      173.57500
N         67.17200      111.54200      169.75400
C         66.83000      110.15500      169.46700
C         67.88200      109.49800      168.58300
O         68.45300      108.46300      168.94500
C         65.46200      110.07900      168.79300
O         65.58700      110.47700      167.42300
C         64.47600      110.99500      169.49000
N         68.16000      110.09400      167.42800
C         69.05000      109.49100      166.45800
C         68.57200      109.70800      165.03900
O         69.21800      109.28000      164.07800
N         67.43200      110.37600      164.90100
C         66.85800      110.71100      163.61000
C         66.70500      112.22400      163.52000
O         66.91500      112.95200      164.49400
C         65.51200      110.00600      163.40500
O         65.09600      110.08000      162.05400
N         66.34000      112.69900      162.33300
C         66.07000      114.11100      162.11700
C         64.85900      114.24000      161.21100
O         64.70300      113.47200      160.26000
C         67.27300      114.82900      161.50100
N         64.00700      115.21300      161.51100
C         62.74900      115.40300      160.80100
C         62.82500      116.68600      159.98500
O         63.40700      117.68600      160.42200
C         61.54900      115.42800      161.76900
C         61.59200      114.21900      162.68400
C         61.52500      116.71000      162.58500
N         62.24700      116.65000      158.79200
C         62.17200      117.82700      157.94400
C         60.73100      118.31600      157.93300
O         59.78000      117.54100      158.06400
C         62.68200      117.54300      156.51800
C         63.02800      118.84600      155.80300
C         61.65700      116.75900      155.73100
C         63.61500      118.64100      154.43700
N         60.57200      119.62600      157.79200
C         59.24900      120.23200      157.83800
C         59.26900      121.48600      156.97800
O         60.28300      121.82400      156.36400
C         58.83400      120.54400      159.27700
C         59.73800      121.53000      159.97100
C         61.00600      121.16000      160.39900
C         59.32200      122.83200      160.20200
C         61.83400      122.06300      161.03000
C         60.14200      123.74100      160.83600
C         61.39500      123.35200      161.24800
O         62.21100      124.25900      161.87900
N         58.14100      122.17900      156.94300
C         57.95800      123.32400      156.06800
C         57.80300      124.59300      156.89100
O         57.89900      124.58600      158.12000
C         56.74400      123.12200      155.16500
C         56.52300      121.67300      154.81000
O         57.30500      121.13400      154.00100
O         55.56900      121.07400      155.34700
N         57.54800      125.69400      156.19100
C         57.35300      126.99700      156.81200
C         55.88800      127.38800      156.91500
O         55.41100      127.70200      158.01000
C         58.11400      128.06900      156.02500
C         58.61000      129.30700      156.77500
C         59.63800      130.04700      155.93600
C         57.46400      130.24000      157.13900
N         55.16200      127.37500      155.80300
C         53.76300      127.77100      155.78100
C         52.82200      126.62700      156.13200
O         51.60400      126.83000      156.16000
C         53.40100      128.33800      154.40700
C         53.92300      129.74500      154.15300
C         55.39300      129.77200      153.77200
O         56.00700      128.68900      153.68100
O         55.93100      130.87900      153.55700
N         53.35300      125.43900      156.40100
C         52.53400      124.28200      156.72500
C         52.71200      123.78100      158.14700
O         51.75800      123.24100      158.71200
C         52.83600      123.12500      155.76600
O         53.89100      122.32300      156.31000
C         53.25400      123.65900      154.41000
N         53.90000      123.92900      158.73300
C         54.20600      123.45000      160.08000
C         54.00300      121.94500      160.22000
O         53.89200      121.43200      161.33700
C         53.38000      124.19500      161.13800
O         53.78900      123.84600      162.45000
N         53.96600      121.22400      159.10200
C         53.70800      119.78800      159.08700
C         54.97900      119.07500      158.65200
O         55.40200      119.19900      157.49800
C         52.54100      119.45700      158.16000
C         51.20800      120.01100      158.63700
C         50.30900      120.44100      157.49700
O         50.77800      120.73700      156.40100
N         49.00800      120.47800      157.75200
N         55.58300      118.33000      159.57400
C         56.84300      117.66300      159.28800
C         56.65500      116.58300      158.23200
O         55.72900      115.77200      158.30400
C         57.42900      117.06200      160.56300
O         58.15600      118.03800      161.28900
N         57.55300      116.57700      157.24800
C         57.39500      115.70100      156.09400
C         57.90100      114.29400      156.37900
O         57.13400      113.32600      156.33700
C         58.12500      116.29200      154.88600
C         57.94200      117.79200      154.67500
C         58.67200      118.24400      153.42800
C         56.46700      118.12200      154.57900
N         59.19300      114.15600      156.67000
C         59.81000      112.84000      156.74900
C         60.96200      112.88600      157.74300
O         61.62500      113.91500      157.91500
C         60.27700      112.36700      155.35000
C         61.27800      113.34200      154.75900
C         60.84400      110.95400      155.40000
N         61.17900      111.75800      158.41200
C         62.30900      111.56700      159.29900
C         63.39300      110.81100      158.54500
O         63.16500      110.22700      157.48300
C         61.90700      110.81000      160.58400
C         61.94000      109.30200      160.33900
C         60.51800      111.22600      161.02500
C         62.25900      108.49300      161.56800
N         64.59800      110.82800      159.10400
C         65.73000      110.15100      158.49300
C         66.71700      109.74800      159.57600
O         66.91800      110.47400      160.55300
C         66.39300      111.04300      157.43800
C         66.58200      112.51000      157.82900
C         67.90600      112.73900      158.52700
C         66.45100      113.40900      156.61000
N         67.32100      108.57700      159.40100
C         68.23000      108.03100      160.40300
C         69.55700      107.60300      159.79300
O         70.08900      106.54600      160.13400
C         67.59000      106.84100      161.11800
O         68.01400      105.61500      160.54600
N         70.53200      107.75200      170.29500
C         71.72300      108.26700      169.63200
C         71.67300      109.78600      169.51100
O         70.81100      110.33500      168.82800
C         71.87600      107.63700      168.24800
C         73.18800      107.99600      167.58700
O         73.33400      109.07500      167.01500
N         74.15100      107.08800      167.65800
N         72.60200      110.46700      170.17400
C         72.62100      111.92000      170.11900
C         73.07900      112.40200      168.74900
O         73.86600      111.74700      168.06100
C         73.53500      112.48700      171.20300
C         73.13800      113.85100      171.67000
N         73.57400      114.38500      172.86200
C         72.34100      114.78900      171.10600
C         73.06700      115.59500      173.01100
N         72.31300      115.86300      171.96000
N         72.56500      113.56200      168.35200
C         72.91500      114.20300      167.09200
C         73.33900      115.62700      167.41700
O         72.49200      116.48600      167.69000
C         71.75500      114.19200      166.09300
C         71.38800      112.75300      165.73100
C         72.11700      114.99400      164.86000
C         70.27600      112.65000      164.72200
N         74.64600      115.87900      167.38300
C         75.16900      117.15300      167.86000
C         74.77300      118.29900      166.94000
O         74.06400      119.22500      167.35000
C         76.68800      117.06600      167.99000
C         77.12600      115.90200      168.84300
O         76.51800      115.61400      169.87300
N         78.17700      115.21600      168.41600
N         75.21100      118.25100      165.68500
C         75.07400      119.39000      164.79100
C         74.60100      118.93000      163.42300
O         75.09700      117.93200      162.89300
C         76.40100      120.14000      164.66400
C         76.42800      121.15400      163.55300
C         75.56900      122.34000      163.90400
N         76.13400      123.09000      165.01600
C         75.72300      124.29700      165.37600
N         76.29000      124.91400      166.40100
N         74.74200      124.88600      164.70900
N         73.65000      119.66600      162.85800
C         73.11800      119.40400      161.52900
C         73.33400      120.65500      160.69100
O         73.30800      121.77100      161.22100
C         71.62800      119.01700      161.58900
C         70.99000      119.04400      160.21000
C         71.47600      117.64000      162.21800
N         73.60300      120.47200      159.39900
C         73.75600      121.58000      158.46900
C         73.04400      121.23100      157.17000
O         72.73900      120.07100      156.89000
C         75.23400      121.92100      158.19900
C         75.77200      122.82600      159.28700
C         76.05300      120.65000      158.09800
N         72.79100      122.26100      156.36900
C         72.11800      122.10200      155.09000
C         73.02000      122.61500      153.98200
O         73.50500      123.74800      154.04400
C         70.78100      122.84300      155.06700
O         69.96500      122.36800      154.01000
N         73.23900      121.77500      152.97700
C         74.04000      122.15600      151.82900
C         73.38000      123.32200      151.09400
O         72.15300      123.45300      151.10000
C         74.19200      120.96300      150.89200
C         75.28200      121.11300      149.88200
N         75.12100      121.82500      148.71500
C         76.54400      120.62400      149.85400
C         76.24100      121.77900      148.01600
N         77.12000      121.05600      148.68500
N         74.16900      124.18400      150.44800
C         73.57500      125.27200      149.65700
C         72.92600      124.78000      148.37200
O         72.56500      125.58000      147.50400
C         74.76600      126.19600      149.37500
C         75.97000      125.35600      149.59900
C         75.60600      124.39000      150.67100
N         72.80000      123.46400      148.23000
C         71.93800      122.84400      147.23600
C         70.79400      122.15000      147.96000
O         70.95800      121.68900      149.09400
C         72.70500      121.84100      146.37600
O         73.26200      120.82100      147.21200
C         73.82300      122.53800      145.63200
N         69.63600      122.08400      147.30500
C         68.41300      121.61500      147.96000
C         68.52300      120.22500      148.57400
O         68.20400      120.08200      149.76500
C         67.24600      121.66900      146.96300
C         65.83800      121.63800      147.56000
C         65.72900      122.64600      148.67900
C         64.78500      121.90700      146.49400
N         68.93900      119.17700      147.85500
C         68.82400      117.82900      148.44000
C         69.73300      117.59200      149.63300
O         69.26000      117.16800      150.69400
C         69.17500      116.91600      147.25900
C         70.07100      117.73800      146.41200
C         69.54700      119.13700      146.51200
N         71.02700      117.88200      149.49900
C         72.00500      117.40600      150.46700
C         71.80300      118.08900      151.81200
O         71.67000      119.31700      151.90000
C         73.43100      117.63200      149.94000
C         74.40200      116.68300      150.61900
C         73.47100      117.46600      148.42800
N         71.77700      117.28200      152.87000
C         71.67000      117.76200      154.24000
C         72.52000      116.85000      155.10900
O         72.34700      115.62700      155.08000
C         70.21700      117.76100      154.72100
O         69.55700      116.58800      154.22900
C         69.48300      119.00100      154.22200
N         73.43400      117.44000      155.86900
C         74.47100      116.69800      156.57000
C         74.14200      116.67400      158.05200
O         73.67200      117.67200      158.61200
C         75.86600      117.30700      156.33400
C         76.12600      117.51900      154.84200
C         76.93700      116.41400      156.91800
C         75.69800      118.87300      154.31500
N         74.39800      115.53300      158.68900
C         74.14600      115.36100      160.10800
C         75.34400      114.68600      160.75700
O         76.11000      113.97100      160.10200
C         72.87700      114.53700      160.36500
O         72.55300      114.57900      161.75800
C         73.08300      113.09300      159.94700
N         75.49000      114.92400      162.05700
C         76.59200      114.39900      162.85200
C         76.01500      113.59300      164.00500
O         75.20900      114.10900      164.78600
C         77.47800      115.53100      163.37400
N         76.42600      112.33800      164.11100
C         75.89400      111.45200      165.13000
C         76.81800      111.38800      166.33900
O         78.01100      111.68800      166.26100
C         75.69100      110.05000      164.56700
C         74.43900      109.89800      163.76900
N         74.14200      110.70500      162.69300
C         73.40300      109.03600      163.89100
C         72.97700      110.34500      162.18500
N         72.50800      109.33400      162.89300
N         76.24000      110.98300      167.47300
C         77.05400      110.66700      168.64000
C         77.96800      109.48300      168.36300
O         79.02200      109.35000      168.99400
C         76.16000      110.38000      169.84800
C         75.63600      108.94800      169.90600
C         74.99700      108.59700      171.23500
O         74.17400      109.39300      171.73200
O         75.31800      107.52000      171.78000
N         77.59000      108.62100      167.41700
C         78.37300      107.44700      167.06500
C         79.45900      107.75000      166.05100
O         79.92300      106.83200      165.36700
C         77.45700      106.33400      166.54600
C         76.50700      106.81100      165.46500
O         76.98300      107.16800      164.36900
O         75.28200      106.82100      165.70700
N         79.85600      109.01800      165.93300
C         81.02500      109.42300      165.15300
C         80.87700      109.08700      163.67300
O         81.86800      108.85500      162.97800
C         82.30500      108.79600      165.71500
C         82.37300      108.79200      167.23200
C         83.66400      108.17300      167.73700
N         83.65800      106.71600      167.66500
C         84.59700      105.99300      167.06300
N         84.51100      104.66900      167.05100
N         85.62400      106.59100      166.47700
N         79.64600      109.06300      163.17200
C         79.37800      108.76200      161.77000
C         78.69400      109.96200      161.13400
O         77.49900      110.18700      161.35300
C         78.51100      107.51300      161.62800
C         79.09500      106.29500      162.26800
N         80.43600      106.17900      162.56300
C         78.52000      105.13600      162.66800
C         80.66300      105.00200      163.11700
N         79.51700      104.35000      163.19300
N         79.44500      110.73100      160.34900
C         78.84100      111.80600      159.57400
C         77.94700      111.18500      158.51300
O         78.38900      110.33500      157.73100
C         79.91300      112.69800      158.94100
C         80.72700      113.39400      160.02500
C         79.26900      113.71900      158.02600
C         79.89200      114.24200      160.94000
N         76.68500      111.60100      158.48300
C         75.71500      111.02600      157.56800
C         75.09900      112.11300      156.69700
O         75.14200      113.30300      157.01800
C         74.62900      110.25700      158.32900
C         75.18300      109.11400      159.16500
C         74.08600      108.19100      159.66500
C         74.65800      107.05400      160.50400
N         75.23000      107.52400      161.79500
N         74.53800      111.68000      155.57200
C         74.01500      112.57900      154.55700
C         72.65000      112.09500      154.10300
O         72.40400      110.89000      153.99700
C         74.95300      112.66700      153.35700
C         76.35500      113.04500      153.71600
C         76.78000      114.35300      153.59600
C         77.25000      112.09500      154.17000
C         78.06700      114.70500      153.92300
C         78.53600      112.44100      154.49800
C         78.94700      113.74700      154.37500
N         71.75900      113.04500      153.83800
C         70.40500      112.71000      153.42700
C         69.91400      113.74900      152.43400
O         70.57200      114.76000      152.18100
C         69.46000      112.62100      154.62800
C         69.92000      111.66600      155.68700
C         70.75700      112.09000      156.70400
C         69.52200      110.34200      155.66100
C         71.18300      111.21400      157.67200
C         69.94200      109.46200      156.63200
C         70.77600      109.89700      157.63700
N         68.74300      113.48500      151.87000
C         68.14000      114.36500      150.88700
C         66.83600      114.92700      151.43100
O         66.11500      114.26100      152.17700
C         67.88400      113.63700      149.56700
C         66.57200      112.89800      149.56200
O         66.35300      112.08000      150.47600
O         65.75700      113.14100      148.65200
N         66.54400      116.15800      151.05300
C         65.31800      116.79400      151.51000
C         64.07100      116.26700      150.81000
O         62.99500      116.84500      151.01300
C         65.42300      118.30800      151.32700
C         65.08300      118.75100      149.91900
O         65.58300      118.19300      148.94300
N         64.22600      119.75800      149.80700
N         64.14100      115.20900      150.00400
C         62.96800      114.69800      149.31000
C         62.57400      113.28700      149.71100
O         61.38800      112.95600      149.64700
C         63.17900      114.74100      147.79000
C         62.85100      116.08600      147.16500
C         61.38100      116.43200      147.34500
C         61.19600      117.60100      148.30300
N         59.76500      117.81200      148.65000
N         63.52300      112.44300      150.10800
C         63.17400      111.14300      150.65900
C         64.03800      110.73400      151.84000
O         63.86600      109.62000      152.34300
C         63.24300      110.05000      149.57900
O         63.24200      108.76100      150.20400
C         64.49200      110.20000      148.73500
N         64.95000      111.59000      152.29900
C         65.76000      111.30200      153.46700
C         66.53300      110.00400      153.37600
O         66.54700      109.21600      154.32500
N         67.17400      109.76500      152.23900
C         67.91500      108.53000      152.04400
C         69.28800      108.61800      152.69500
O         69.99100      109.62400      152.56900
C         68.06400      108.22200      150.55600
C         66.79600      107.69900      149.91100
C         66.19900      106.55400      150.70900
C         64.93700      106.02900      150.04900
N         64.26800      104.99700      150.88500
N         69.67100      107.54700      153.38600
C         70.99300      107.47200      153.98700
C         72.02300      107.24700      152.89300
O         72.53900      106.13800      152.73100
C         71.05400      106.35400      155.02700
C         71.95600      106.65400      156.20800
S         73.68900      106.74800      155.73300
C         74.03000      105.04000      155.31800
N         72.32300      108.30200      152.13400
C         73.18500      108.14900      150.96900
C         74.62000      107.86500      151.38100
O         75.34800      107.16300      150.66900
C         73.09200      109.39900      150.07700
C         73.22700      110.66300      150.92400
C         71.78000      109.40900      149.31200
C         73.05400      111.93900      150.14100
N         75.05300      108.38400      152.52600
C         76.45000      108.26000      152.91600
C         76.57500      108.36100      154.42700
O         75.99400      109.26000      155.04000
C         77.29500      109.34000      152.23600
C         78.75900      109.21900      152.50900
N         79.34600      108.03500      152.89800
C         79.75600      110.13200      152.45000
C         80.64200      108.22300      153.06500
N         80.91700      109.48800      152.80100
N         77.32700      107.43400      155.02200
C         77.63100      107.44100      156.45400
C         79.09900      107.06700      156.61100
O         79.45000      105.88400      156.63500
C         76.73500      106.48900      157.23000
O         77.25400      106.24800      158.52700
N         79.95300      108.07400      156.72600
C         81.38300      107.86000      156.89500
C         81.75800      108.12700      158.34600
O         81.39700      109.16900      158.90200
C         82.18300      108.76000      155.95600
C         81.68100      110.19100      155.89200
S         83.01300      111.40100      155.94800
C         83.16200      111.64600      157.71100
N         82.46400      107.17900      158.96300
C         83.01000      107.43300      160.28800
C         84.03100      108.55600      160.17700
O         84.86100      108.58100      159.26000
C         83.59500      106.14300      160.88800
C         84.88600      105.73200      160.19500
C         83.81800      106.30700      162.38300
N         83.93600      109.52900      161.08200
C         84.67200      110.77900      160.93400
C         85.92400      110.83400      161.79900
O         87.03300      110.98900      161.28300
C         83.75200      111.95900      161.25900
N         85.76700      110.70400      163.11100
C         86.87500      110.87600      164.03700
C         86.77000      109.81100      165.11600
O         86.01100      108.84500      164.99600
C         86.87700      112.28100      164.65000
C         86.73200      113.38400      163.65100
N         85.50600      113.82400      163.20600
C         87.65700      114.15200      163.03100
C         85.68200      114.80900      162.34400
N         86.97800      115.02800      162.22100
N         87.54400      109.99700      166.18200
C         87.52200      109.11000      167.33300
C         86.63900      109.63800      168.45300
O         86.71200      109.13500      169.57700
C         88.94200      108.87400      167.84900
C         89.80000      107.82200      167.13500
C         89.19100      106.43900      167.31000
C         90.02900      108.13800      165.65900
N         85.80400      110.63200      168.17000
C         84.91800      111.20500      169.16700
C         83.62800      111.64800      168.49400
O         83.55300      111.77700      167.27000
C         85.58700      112.37500      169.88700
C         85.94100      112.04700      171.31900
O         85.49700      110.99000      171.81100
O         86.66100      112.84300      171.95400
N         82.59800      111.86400      169.31200
C         81.31400      112.33500      168.81000
C         81.49300      113.67100      168.10700
O         81.86600      114.66500      168.73700
C         80.29600      112.45600      169.94400
N         81.24200      113.69800      166.79800
C         81.45600      114.91000      166.01800
C         80.53800      116.00400      166.53400
O         79.30800      115.88500      166.47600
C         81.22300      114.63900      164.53400
C         81.37200      115.92400      163.74500
C         82.18900      113.58100      164.04500
N         81.13200      117.08200      167.03900
C         80.34000      118.09300      167.72400
C         79.71700      119.09000      166.75800
O         78.53700      119.42800      166.89700
C         81.19600      118.82300      168.75600
O         81.27900      120.21400      168.41900
C         82.58500      118.22600      168.79900
N         80.47700      119.58000      165.78200
C         79.99100      120.67100      164.95000
C         80.31200      120.41900      163.48800
O         81.24900      119.69700      163.14700
C         80.59100      122.01600      165.36900
O         80.51700      122.95400      164.30900
N         79.52700      121.05400      162.62600
C         79.73000      121.00700      161.19000
C         79.62800      122.41400      160.62600
O         78.86700      123.24600      161.12400
C         78.70900      120.09800      160.50800
C         78.52700      118.71200      161.12200
C         77.32700      118.01500      160.51500
C         79.78300      117.88200      160.93000
N         80.41400      122.67400      159.58600
C         80.39900      123.96300      158.90700
C         80.50300      123.72900      157.41100
O         81.30100      122.90000      156.96900
C         81.54100      124.86200      159.38500
N         79.71200      124.46400      156.63600
C         79.59500      124.24800      155.19900
C         80.19700      125.43600      154.46700
O         79.90000      126.59100      154.79400
C         78.13300      124.03000      154.78200
C         78.02800      123.93400      153.27500
C         77.58300      122.77700      155.43400
N         81.04000      125.14500      153.48300
C         81.62100      126.17400      152.63500
C         80.51300      127.02100      152.01100
O         79.45900      126.48800      151.64500
C         82.47400      125.51500      151.54400
C         83.16000      126.51900      150.63800
O         82.46900      127.16000      149.81900
O         84.39700      126.65500      150.73500
N         80.71100      128.33600      151.87000
C         79.66000      129.18200      151.29100
C         79.38200      128.86600      149.83100
O         78.44200      129.41000      149.24500
C         80.22100      130.59900      151.46000
C         81.68900      130.40700      151.54000
C         81.87800      129.12800      152.28700
N         80.19100      127.99200      149.23000
C         79.95900      127.55300      147.86000
C         79.91100      126.03200      147.75500
O         79.93200      125.49100      146.64500
C         81.02400      128.12100      146.92100
C         81.12000      129.62800      146.99700
O         80.46500      130.34400      146.24000
N         81.94200      130.12100      147.91300
N         79.84900      125.33400      148.88500
C         79.63200      123.90100      148.89500
C         80.70000      123.08100      148.20500
O         80.43600      122.44100      147.18400
N         81.91500      123.09800      148.74300
C         82.99000      122.25900      148.23000
C         83.57700      121.45000      149.37600
O         83.64000      120.21600      149.31400
C         84.07400      123.09700      147.53200
C         83.44100      124.06700      146.54000
C         85.06300      122.19600      146.82000
C         83.31500      125.45800      147.06900
N         84.00100      122.13800      150.42900
C         84.59900      121.51800      151.59900
C         83.59500      121.49500      152.74400
O         82.46900      121.98600      152.63500
C         85.87400      122.25400      152.00700
C         86.81600      122.51600      150.86000
C         87.07300      121.53800      149.91100
C         87.44900      123.74300      150.72600
C         87.93500      121.77300      148.86200
C         88.31200      123.98800      149.67900
C         88.55000      123.00000      148.75000
O         89.40900      123.23900      147.70400
N         84.02100      120.90800      153.85700
C         83.13700      120.72200      155.00400
C         83.99100      120.58200      156.25200
O         84.82100      119.67200      156.33600
C         82.24800      119.49100      154.80400
C         81.52700      118.87600      156.00400
C         80.55400      119.86000      156.60600
C         80.80600      117.60300      155.59100
N         83.80400      121.48900      157.20600
C         84.50100      121.41700      158.48100
C         83.75000      120.49800      159.43100
O         82.55700      120.70100      159.68200
C         84.61600      122.80700      159.09700
C         84.92000      123.90300      158.11600
S         86.55400      123.68500      157.41200
C         87.50400      123.35300      158.88900
N         84.44700      119.50300      159.97400
C         83.84500      118.54300      160.89700
C         84.59200      118.61100      162.22700
O         85.57500      117.89700      162.43600
C         83.87300      117.14000      160.31400
O         83.16900      116.23100      161.13900
N         84.12000      119.47200      163.12700
C         84.74600      119.60800      164.43200
C         84.30100      118.50000      165.36800
O         83.10000      118.28900      165.57600
N         85.27400      117.80700      165.95400
C         85.03300      116.61600      166.75100
C         85.64400      116.77000      168.13500
O         86.60700      117.51600      168.32600
C         85.62200      115.38600      166.07500
O         86.87500      115.69900      165.49400
N         85.09000      116.03200      169.09900
C         85.60700      116.05200      170.46300
C         87.01500      115.49100      170.57400
O         87.59100      115.51900      171.66600
C         84.67700      115.27900      171.39500
C         83.53900      116.09000      171.92000
N         83.58300      117.46400      172.00400
C         82.32900      115.72100      172.39900
C         82.44600      117.90700      172.50700
N         81.66800      116.87000      172.75600
N         87.58000      114.98200      169.48700
C         88.94700      114.49100      169.46000
C         89.96600      115.61100      169.34900
O         91.12300      115.33700      169.02000
C         89.12000      113.51100      168.29800
C         90.22400      112.50700      168.53900
O         90.76700      112.47400      169.66100
O         90.54800      111.74800      167.60500
N         89.55100      116.84600      169.62200
C         90.32600      118.05500      169.34000
C         91.05000      117.94100      168.00000
O         92.25000      118.19800      167.87900
C         91.29600      118.38800      170.47700
S         92.33700      117.06100      171.11600
N         90.29300      117.54800      166.97700
C         90.82500      117.38000      165.62800
C         89.75100      117.79400      164.63100
O         88.81000      117.03700      164.37300
C         91.26900      115.93900      165.38200
O         92.55200      115.70200      165.93100
N         89.89700      118.98600      164.07700
C         89.02100      119.49100      163.02900
C         89.51900      118.96700      161.69200
O         90.72700      118.84200      161.46800
C         88.97300      121.03000      163.05600
C         88.23500      121.56600      161.83700
C         90.36600      121.61300      163.10400
C         86.78400      121.18000      161.79100
N         88.58700      118.62200      160.80900
C         88.92900      118.08000      159.50400
C         88.16700      118.81700      158.41500
O         86.95500      119.03300      158.53000
C         88.63100      116.58000      159.42400
C         89.65000      115.69300      160.11900
C         89.77400      114.35900      159.40100
N         90.05400      113.25200      160.31000
C         91.22100      112.62200      160.38700
N         92.22800      112.98800      159.61100
N         91.37900      111.62300      161.24300
N         88.89100      119.20300      157.36900
C         88.30400      119.71000      156.13400
C         88.10600      118.52200      155.21100
O         89.05300      118.05000      154.57500
C         89.20300      120.75200      155.48300
C         89.40100      122.08700      156.18800
C         90.54400      122.02300      157.17600
C         89.63600      123.17500      155.16500
N         86.88100      118.01500      155.16500
C         86.52600      117.00800      154.18500
C         86.11900      117.68600      152.88600
O         85.80400      118.87600      152.84900
C         85.38000      116.13400      154.69100
C         85.57500      115.63900      156.08000
C         85.42500      116.35300      157.22900
C         85.95500      114.31700      156.47500
N         85.69100      115.56000      158.31400
C         86.01800      114.30400      157.87800
C         86.24800      113.14500      155.77700
C         86.36200      113.16600      158.59800
C         86.58900      112.01600      156.49500
C         86.64400      112.03500      157.89000
N         86.12200      116.91100      151.81300
C         85.64600      117.38600      150.52600
C         84.32600      116.70900      150.19600
O         84.15300      115.51300      150.44300
C         86.67300      117.11800      149.43000
C         87.02600      118.36400      148.66300
O         86.14700      119.11800      148.24800
N         88.31800      118.60000      148.48200
N         83.39300      117.48300      149.64100
C         82.06000      116.95400      149.38600
C         82.06700      115.81500      148.37700
O         81.07400      115.08700      148.27400
C         81.13700      118.07100      148.91100
C         80.30800      118.73800      150.00900
C         79.15700      117.82300      150.38600
C         81.14800      119.08200      151.23100
N         83.15600      115.64500      147.63000
C         83.31200      114.52300      146.71200
C         84.18100      113.42700      147.31700
O         83.75800      112.27100      147.41600
C         83.91700      115.01800      145.39700
C         85.01500      116.03100      145.61900
O         84.86000      116.87900      146.52100
O         86.03400      115.97400      144.90100
N         85.39800      113.77600      147.72400
C         86.30400      112.84800      148.38900
C         86.07300      112.96000      149.89000
O         86.43800      113.96500      150.50700
C         87.75400      113.15400      148.02900
O         88.63700      112.62100      148.99800
N         85.47900      111.92000      150.47900
C         85.08300      111.93700      151.88100
C         86.13400      111.32500      152.79800
O         85.78700      110.74200      153.83300
C         83.74000      111.22700      152.05900
C         82.53600      112.04800      151.61900
C         82.11400      111.71000      150.19700
C         80.76000      112.32000      149.86500
N         80.35400      112.06700      148.45600
N         87.40700      111.42900      152.43900
C         88.50100      111.01800      153.30000
C         89.12900      112.25700      153.93800
O         88.63900      113.38000      153.78400
C         89.51700      110.19600      152.50300
O         90.53900      109.70700      153.38100
C         90.14800      111.04400      151.41100
N         90.23500      112.06300      154.65500
C         90.86000      113.17300      155.36300
C         91.55000      114.11600      154.38200
O         92.77800      114.13700      154.26700
C         91.81600      112.64200      156.44100
S         93.35200      111.83100      155.91200
N         90.74600      114.90700      153.67000
C         91.29500      115.85500      152.70700
C         92.23800      116.82900      153.39700
O         93.26800      117.21900      152.83600
C         90.15800      116.58500      151.97300
C         90.69700      117.32800      150.76200
C         89.08900      115.59600      151.56500
N         91.90700      117.23700      154.61900
C         92.87000      117.94000      155.45400
C         92.48200      117.75800      156.91000
O         91.30100      117.65000      157.23800
C         92.95200      119.42900      155.11500
C         94.17400      120.11400      155.69200
C         94.11100      121.61500      155.55500
O         93.08400      122.16900      155.17200
N         95.21000      122.28600      155.87400
N         93.48500      117.73600      157.78200
C         93.25100      117.56700      159.21000
C         94.13000      118.53400      159.98400
O         95.35200      118.53600      159.81800
C         93.52800      116.12900      159.65300
C         93.63000      115.96600      161.15900
C         94.09600      114.58400      161.56200
O         94.18100      113.70500      160.67900
O         94.37900      114.37400      162.76000
N         93.50800      119.35100      160.82200
C         94.21400      120.22400      161.74300
C         93.80000      119.82500      163.14800
O         92.63000      119.52400      163.40100
C         93.90000      121.70900      161.46800
C         94.61700      122.17500      160.20300
C         94.28800      122.57200      162.65000
C         93.83200      121.94900      158.94300
N         94.76300      119.79700      164.06700
C         94.47200      119.42600      165.45300
C         95.21800      120.38500      166.37800
O         96.43200      120.28400      166.56800
C         94.82900      117.97100      165.73000
O         94.71800      117.70900      167.13400
C         96.23000      117.63100      165.23900
N         94.48200      121.34200      166.93300
C         95.02100      122.26500      167.92700
C         93.88300      122.66800      168.85700
O         93.17000      123.63500      168.58500
C         95.66800      123.46500      167.25500
N         93.73500      121.92800      169.95600
C         92.78800      122.25600      171.01200
C         92.97900      121.29600      172.17500
O         93.49300      120.18700      172.01400
C         91.34200      122.20400      170.52500
C         90.79400      123.54100      170.14300
N         90.58200      123.90800      168.83300
C         90.43500      124.60600      170.89600
C         90.10200      125.13800      168.79600
N         90.00500      125.58500      170.03400
N         92.54000      121.73200      173.35100
C         92.76700      121.00600      174.59100
C         91.47400      120.36800      175.07100
O         90.38600      120.91100      174.86500
C         93.32500      121.92800      175.67600
C         94.47500      122.80600      175.21800
C         95.50200      122.01400      174.42300
N         95.94900      120.81900      175.13100
C         97.10700      120.21000      174.90800
N         97.93900      120.67900      173.98900
N         97.42900      119.12700      175.60000
N         91.60400      119.20900      175.71300
C         90.45700      118.49300      176.26300
C         90.25500      118.95600      177.70200
O         90.56000      118.25200      178.66500
C         90.67500      116.98900      176.18100
C         91.19100      116.51100      174.83900
C         91.27200      114.99700      174.79700
C         91.90300      114.52200      173.50500
N         93.21100      115.19300      173.26600
N         89.72700      120.17500      177.83900
C         89.52500      120.75200      179.16600
C         88.62500      119.87300      180.02400
O         88.77800      119.82100      181.24900
C         88.93900      122.15700      179.04200
C         88.80000      122.89700      180.36100
C         87.36800      122.86400      180.86500
C         87.12200      123.95300      181.88800
N         87.39700      125.30000      181.32600
N         87.68000      119.17900      179.40200
C         86.81500      118.26400      180.13100
C         86.41900      117.11300      179.22100
O         87.06000      116.87900      178.19100
C         85.57600      118.99000      180.65700
C         85.63900      119.51200      182.09400
C         84.25400      119.89000      182.59700
C         86.27100      118.47900      183.00500
N         85.37100      116.38000      179.60000
C         84.84600      115.34300      178.72100
C         84.34900      115.93500      177.40700
O         84.15000      115.21000      176.42600
C         83.71800      114.57600      179.41300
C         84.22000      113.68700      180.53400
O         85.44200      113.44100      180.59700
O         83.46600      113.19000      181.39800
N         84.13600      117.24600      177.37300
C         83.70400      117.94900      176.17500
C         84.87100      118.70900      175.55700
O         85.67600      119.32200      176.26500
C         82.56000      118.91200      176.49800
C         82.14000      119.79600      175.34000
C         80.66700      120.15200      175.38400
O         80.03500      119.93700      176.43900
O         80.14300      120.65300      174.36700
N         84.94900      118.66800      174.23000
C         85.98400      119.33900      173.45900
C         85.30300      120.24400      172.44800
O         84.11300      120.53700      172.58800
C         86.91300      118.35700      172.75200
O         88.08100      119.01600      172.30000
N         86.06100      120.66700      171.42900
C         85.75500      121.83500      170.59900
C         84.27700      121.94300      170.25700
O         83.63200      120.96800      169.85900
C         86.59400      121.83300      169.30900
C         86.23600      120.64700      168.42000
C         88.04400      121.77000      169.64300
C         87.17100      120.46900      167.25700
N         83.73000      123.14100      170.43800
C         82.29100      123.31800      170.32600
C         81.86700      123.50500      168.87600
O         81.03200      122.75400      168.36100
C         81.85400      124.50900      171.17200
C         82.20400      124.38100      172.62900
C         81.84200      123.25900      173.35200
C         82.90100      125.38100      173.28200
C         82.16000      123.14600      174.68600
C         83.21800      125.28000      174.61000
C         82.85100      124.16000      175.31000
O         83.17500      124.05500      176.64000
N         82.43300      124.50200      168.19800
C         81.85400      124.97700      166.95000
C         82.95300      125.30100      165.94700
O         84.10200      125.56200      166.30800
C         80.96600      126.20000      167.20300
C         80.21700      126.64700      165.97100
O         79.98300      125.80700      165.07800
O         79.85500      127.84100      165.90300
N         82.58800      125.27000      164.66700
C         83.50700      125.60100      163.58400
C         82.75800      126.46100      162.57600
O         81.57600      126.23100      162.31100
C         84.07800      124.33500      162.91400
C         85.13500      124.71900      161.91400
C         84.63900      123.37000      163.94500
N         83.44500      127.45100      162.00600
C         82.79500      128.40100      161.11500
C         83.71900      128.80000      159.97700
O         84.84200      129.26200      160.20700
C         82.34500      129.65200      161.87500
N         83.22600      128.63100      158.75400
C         83.88700      129.13200      157.56300
C         83.74500      130.64400      157.47900
O         83.08200      131.28400      158.29800
C         83.27800      128.50700      156.31600
C         84.18000      127.56100      155.60700
C         83.90300      126.21100      155.57900
C         85.30600      128.02300      154.95900
C         84.73200      125.33800      154.91800
C         86.14000      127.15500      154.29600
C         85.85200      125.80900      154.27400
N         84.37100      131.22100      156.46500
C         84.05100      132.56800      156.03200
C         83.13700      132.47800      154.81500
O         82.63800      131.40700      154.46200
C         85.32200      133.36200      155.73100
C         85.15700      134.84300      155.87400
N         85.49700      135.52300      157.02200
C         84.68700      135.77600      155.01300
C         85.24600      136.81000      156.86200
N         84.75100      136.98900      155.65200
N         82.90300      133.61200      154.16700
C         82.17100      133.62000      152.91300
C         82.77900      134.52000      151.84900
O         82.38600      134.40400      150.68600
C         80.71500      134.03600      153.15100
O         80.63800      135.07000      154.11300
N         83.72100      135.39800      152.18900
C         84.27800      136.32900      151.21800
C         85.80200      136.36700      151.25600
O         86.44200      136.70500      150.25700
C         83.71400      137.72900      151.45900
O         83.63000      138.00600      152.84500
N         86.39700      136.02500      152.39800
C         87.83800      136.13200      152.56900
C         88.53900      134.79500      152.73500
O         89.77400      134.77100      152.79600
C         88.16400      137.01400      153.78000
C         87.77500      138.45900      153.59700
C         88.48700      139.05400      152.40500
C         87.65800      140.15800      151.80100
N         86.34100      139.62500      151.37200
N         87.79900      133.69400      152.80700
C         88.36900      132.36300      152.98100
C         89.26500      132.30500      154.21800
O         90.47700      132.09800      154.14200
C         89.12700      131.92100      151.72900
N         88.64400      132.53200      155.36800
C         89.21800      132.19300      156.65900
C         88.42900      131.03900      157.25300
O         87.25300      130.83900      156.94000
C         89.17300      133.37400      157.63000
C         90.04600      134.54700      157.27800
C         91.02400      134.44900      156.31000
C         89.88500      135.76000      157.92500
C         91.81700      135.52800      155.99700
C         90.66800      136.83800      157.61900
C         91.63300      136.72000      156.65700
O         92.41600      137.80700      156.35400
N         89.07600      130.28400      158.13100
C         88.39300      129.24100      158.88400
C         88.66500      129.48000      160.36100
O         89.80900      129.73300      160.75100
C         88.83900      127.82900      158.45700
C         88.29900      126.78200      159.42600
C         90.34200      127.74100      158.37900
C         86.79900      126.75900      159.51500
N         87.61600      129.43300      161.17900
C         87.75400      129.63300      162.61000
C         87.15200      128.45500      163.36000
O         86.17200      127.84800      162.92000
C         87.09200      130.93500      163.05100
N         87.76100      128.13400      164.49500
C         87.35600      127.01400      165.33000
C         87.28900      127.48100      166.77400
O         88.26800      128.02400      167.29800
C         88.33100      125.84500      165.18800
O         89.66800      126.30900      165.21600
N         86.13100      127.28400      167.40300
C         85.88200      127.66800      168.78600
C         85.81300      126.39700      169.62200
O         84.88700      125.59000      169.46100
C         84.59100      128.47200      168.89100
N         86.79300      126.22600      170.51100
C         86.97600      125.00700      171.26100
C         86.64400      125.14200      172.73900
O         86.25600      126.19500      173.23700
N         86.81800      124.02000      173.44200
C         86.39700      123.92500      174.83300
C         87.22900      124.79300      175.75900
O         86.73100      125.20100      176.81100
C         86.45500      122.47300      175.30400
N         88.47200      125.09000      175.39800
C         89.36400      125.84000      176.26800
C         89.28700      127.34000      176.03900
O         90.15200      128.07500      176.52800
C         90.79900      125.35800      176.08400
C         91.47300      126.00400      174.90500
O         92.33700      126.87700      175.12000
O         91.12900      125.64300      173.76200
N         88.27400      127.80700      175.31000
C         88.10700      129.22300      174.99000
C         89.30100      129.74400      174.18900
O         90.00700      130.66800      174.59700
C         87.89000      130.04700      176.26000
N         89.50700      129.13200      173.02400
C         90.66300      129.44600      172.18800
C         90.21300      129.36900      170.73300
O         90.23400      128.29100      170.13200
C         91.80900      128.48700      172.46700
C         93.22200      129.02900      172.28700
C         93.41100      130.27600      173.11800
C         94.24200      127.97300      172.66300
N         89.81900      130.50900      170.17700
C         89.34700      130.57000      168.80000
C         90.54700      130.60000      167.86500
O         91.24100      131.61300      167.76800
C         88.46200      131.79300      168.59600
N         90.79200      129.49900      167.17200
C         91.87500      129.45500      166.20300
C         91.36600      129.88400      164.83500
O         90.22800      129.59800      164.46200
C         92.47900      128.05500      166.12100
C         92.87000      127.47900      167.46500
C         94.30300      126.98700      167.46200
C         94.70700      126.51400      168.84500
N         96.15900      126.21400      168.93300
N         92.21600      130.58000      164.08700
C         91.85200      131.10100      162.77700
C         92.98200      130.79100      161.81300
O         94.10900      131.26800      161.99700
C         91.57500      132.60900      162.80600
C         91.55200      133.15100      161.40000
C         90.25800      132.88700      163.49500
N         92.67700      129.99900      160.79100
C         93.62000      129.62900      159.74900
C         93.22600      130.30000      158.44100
O         92.03500      130.43200      158.13200
C         93.67100      128.11100      159.54800
C         93.49400      127.31700      160.81100
C         94.59000      126.85100      161.50900
C         92.23100      127.01100      161.28300
C         94.43400      126.11700      162.66000
C         92.06900      126.27600      162.43600
C         93.17200      125.82900      163.12400
N         94.23100      130.71400      157.67800
C         94.01100      131.39200      156.41100
C         94.53500      130.55300      155.25300
O         95.02100      129.44100      155.45100
C         94.66800      132.77300      156.40700
C         94.38900      133.48900      157.71200
C         96.15500      132.64100      156.17800
N        180.15600      125.94000      134.69800
C        179.14900      126.99000      134.61500
C        179.02600      127.71300      135.94500
O        178.50200      128.82300      136.01400
C        177.79700      126.41000      134.20300
C        176.81800      127.47400      133.75700
O        177.24700      128.62400      133.53100
O        175.61800      127.15600      133.62700
N        179.51100      127.07600      137.00600
C        179.38400      127.62100      138.34900
C        180.72400      127.98100      138.96600
O        180.91800      129.12400      139.38700
C        178.63800      126.62200      139.24300
C        177.16700      126.46100      138.88100
C        176.95600      125.71400      137.57900
O        177.89300      125.02500      137.12900
O        175.85700      125.82900      136.99900
N        181.66200      127.04000      139.02800
C        182.97000      127.36600      139.57400
C        183.77900      128.24000      138.62900
O        184.70800      128.92000      139.07400
C        183.73600      126.08700      139.89300
C        183.99000      125.22400      138.68000
C        184.55200      123.87200      139.06400
C        185.00300      123.11600      137.83200
N        183.99100      123.20300      136.74700
N        183.43800      128.25200      137.34200
C        184.20300      129.04200      136.38400
C        184.03200      130.52900      136.66100
O        185.01400      131.26800      136.80000
C        183.80000      128.67800      134.94500
C        182.29500      128.58100      134.82100
C        184.35200      129.70100      133.97300
N        182.78700      130.99500      136.75300
C        182.59300      132.40300      137.05500
C        182.96900      132.72200      138.48900
O        183.27700      133.87400      138.79000
C        181.15600      132.83000      136.76000
C        180.17900      132.48600      137.83700
C        179.51400      131.27300      137.81900
C        179.89300      133.38800      138.84900
C        178.59700      130.95600      138.80400
C        178.97900      133.07700      139.84000
C        178.33100      131.85900      139.81700
N        182.98500      131.72900      139.37200
C        183.54200      131.95100      140.69900
C        185.02000      132.29600      140.60800
O        185.49000      133.24800      141.24000
C        183.33100      130.71600      141.56700
O        181.95200      130.62500      141.93600
C        184.17400      130.80100      142.81300
N        185.77100      131.53000      139.81900
C        187.18200      131.84200      139.62600
C        187.35200      133.19500      138.95900
O        188.25000      133.96700      139.31400
C        187.85000      130.75000      138.79600
C        187.82800      129.39100      139.45900
C        188.46900      128.33600      138.58200
C        188.35100      126.96100      139.21400
N        186.92900      126.58600      139.43900
N        186.50300      133.49000      137.97800
C        186.53200      134.79700      137.33700
C        186.33300      135.91100      138.35200
O        187.05200      136.91600      138.33800
C        185.45800      134.85800      136.26000
C        185.22400      136.22700      135.68700
C        184.27600      136.18000      134.51300
O        183.66100      135.11600      134.29400
O        184.15000      137.19500      133.80100
N        185.36400      135.74500      139.24800
C        185.11100      136.74800      140.27000
C        186.29400      136.88700      141.20600
O        186.63900      137.99700      141.61900
C        183.86300      136.38100      141.05700
C        182.58500      137.03800      140.57400
C        181.39600      136.25200      141.06300
C        182.54500      138.44600      141.09800
N        186.90500      135.76800      141.58500
C        188.05900      135.84100      142.46900
C        189.19000      136.60700      141.80800
O        189.85200      137.43500      142.44600
C        188.51600      134.44100      142.85700
C        187.61200      133.80300      143.87800
O        186.58600      134.41900      144.22700
O        187.92900      132.68600      144.33800
N        189.42000      136.34500      140.52400
C        190.42200      137.10300      139.79100
C        190.06200      138.57900      139.75500
O        190.93500      139.44200      139.89500
C        190.56500      136.54100      138.37900
C        191.31800      137.43900      137.43100
C        190.39100      138.25000      136.56100
O        189.22700      137.89800      136.38800
N        190.89900      139.34300      136.00900
N        188.77800      138.88800      139.57300
C        188.34200      140.27900      139.58100
C        188.66500      140.94400      140.90600
O        189.17400      142.06600      140.94400
C        186.84500      140.36500      139.31200
C        186.48900      140.23400      137.89600
C        187.33800      140.20700      136.84100
C        185.17400      140.10900      137.36000
N        186.63600      140.06900      135.67300
C        185.30100      140.00500      135.96900
C        183.90000      140.07100      137.92500
C        184.20500      139.87100      135.13400
C        182.81600      139.93300      137.09700
C        182.97200      139.83400      135.71700
N        188.34900      140.26900      142.00600
C        188.58100      140.85000      143.32100
C        190.06700      141.05900      143.54200
O        190.49800      142.08700      144.08100
C        187.97200      139.96000      144.41400
C        186.48200      139.76800      144.17400
C        188.19100      140.57800      145.76500
C        185.87000      138.72300      145.04900
N        190.87600      140.09000      143.12300
C        192.31400      140.23500      143.28000
C        192.83100      141.41600      142.47900
O        193.64500      142.20400      142.97000
C        193.02000      138.95300      142.86000
C        194.48600      138.98300      143.18100
C        194.74400      139.53200      144.56700
O        194.13500      139.02600      145.53300
O        195.54500      140.48000      144.69100
N        192.36600      141.55500      141.24100
C        192.74800      142.70200      140.43200
C        192.32400      144.00100      141.09500
O        193.07000      144.98500      141.09200
C        192.12700      142.57200      139.04700
C        192.06400      143.85200      138.26700
C        191.44700      143.65000      136.90500
O        191.35500      142.52600      136.41500
N        191.02400      144.74000      136.28000
N        191.13100      144.01700      141.68100
C        190.62700      145.22700      142.31200
C        191.44800      145.60400      143.52600
O        191.60200      146.79000      143.82300
C        189.17100      145.04000      142.71000
C        188.17600      145.46900      141.64700
C        186.93100      144.63600      141.74200
C        187.85600      146.92800      141.83000
N        191.98200      144.61800      144.23100
C        192.76300      144.93600      145.41700
C        194.03900      145.70300      145.10500
O        194.78900      146.01600      146.03300
C        193.10000      143.65900      146.17300
C        191.91200      143.09700      146.89600
O        191.61700      143.48800      148.02100
N        191.21100      142.18000      146.25200
N        194.30500      146.01200      143.84000
C        195.47100      146.78800      143.44700
C        195.06800      148.05700      142.71000
O        195.77300      148.50600      141.80700
C        196.40400      145.95000      142.58100
C        196.58100      144.53800      143.06800
C        196.96600      143.60200      141.95000
O        196.99500      144.05700      140.79000
O        197.24400      142.41800      142.22600
N        193.92400      148.63100      143.07500
C        193.43300      149.87000      142.47400
C        193.31500      149.75700      140.95800
O        193.37200      150.75700      140.24300
C        194.31900      151.05700      142.85600
S        194.52200      151.29400      144.62800
N        193.14400      148.54100      140.45300
C        193.03300      148.29000      139.02100
C        191.58300      147.96900      138.69300
O        191.09200      146.88800      139.03000
C        193.95100      147.15100      138.59800
C        195.41700      147.44600      138.80800
C        196.27800      146.59200      137.89700
C        195.86700      145.13500      137.97200
N        196.66600      144.28000      137.05900
N        190.91400      148.88800      138.00800
C        189.47800      148.79700      137.78400
C        189.17500      147.69300      136.77900
O        190.04900      146.93700      136.35300
C        188.93500      150.13600      137.30900
C        189.32600      150.47200      135.89100
C        189.46500      151.95600      135.67100
O        189.84600      152.69400      136.57600
N        189.16100      152.40600      134.46300
N        187.91000      147.58500      136.39700
C        187.46400      146.57500      135.45400
C        186.99900      147.22000      134.15800
O        186.77300      148.42900      134.08200
C        186.33000      145.74000      136.04700
C        186.61300      145.18300      137.43400
C        185.51600      144.23500      137.84700
C        187.94100      144.47700      137.42600
N        186.86300      146.39100      133.13100
C        186.31700      146.85000      131.86800
C        184.81500      147.02000      131.99400
O        184.15200      146.29600      132.73800
C        186.62800      145.85800      130.75300
O        185.59800      144.89300      130.65200
N        184.27500      147.98300      131.24900
C        182.86000      148.29300      131.39900
C        181.98800      147.08100      131.11200
O        180.89200      146.96600      131.66300
C        182.47300      149.46600      130.50100
C        181.94300      149.07600      129.14300
C        181.01100      150.12000      128.56400
O        181.24000      151.32200      128.80900
O        180.05000      149.74100      127.86300
N        182.45800      146.15300      130.28400
C        181.69300      144.93100      130.07900
C        181.70900      144.06600      131.32600
O        180.68900      143.46500      131.69300
C        182.24800      144.15300      128.89300
O        182.03700      142.76600      129.08000
N        182.86600      143.97300      131.97900
C        182.93600      143.26000      133.24500
C        182.00200      143.88900      134.26100
O        181.26600      143.18800      134.95900
C        184.36600      143.25800      133.76900
C        185.32800      142.46800      132.92800
C        186.75500      142.83500      133.22100
O        187.07800      144.00700      133.40100
N        187.62300      141.83700      133.27900
N        182.01500      145.21800      134.35100
C        181.12600      145.90400      135.27700
C        179.67700      145.62200      134.92400
O        178.82700      145.48500      135.80500
C        181.42500      147.41100      135.28200
C        180.40900      148.14400      136.10900
C        182.80300      147.66000      135.82300
N        179.37300      145.51000      133.63400
C        177.99800      145.24800      133.23300
C        177.54200      143.87600      133.70400
O        176.48200      143.73800      134.32800
C        177.86500      145.35800      131.72100
C        176.44100      145.27500      131.24900
C        176.37100      145.16400      129.74700
C        174.94100      145.27700      129.27000
N        174.39700      146.63500      129.52700
N        178.33000      142.84300      133.40700
C        177.96000      141.50500      133.85900
C        177.93000      141.43000      135.37600
O        177.07600      140.74400      135.95400
C        178.92500      140.46900      133.29900
O        180.25300      140.79300      133.64600
N        178.82900      142.15500      136.03700
C        178.85000      142.17100      137.49000
C        177.57400      142.77300      138.04600
O        176.96500      142.21800      138.96100
C        180.05900      142.95300      137.98300
C        179.99300      143.30900      139.45900
C        180.09200      142.05400      140.28100
C        181.09700      144.26900      139.81800
N        177.16800      143.92600      137.52100
C        175.94800      144.55200      138.00200
C        174.73300      143.69300      137.71200
O        173.79200      143.67500      138.50500
C        175.78000      145.93400      137.38700
S        177.05400      147.09700      137.87200
N        174.73100      142.96500      136.59900
C        173.62400      142.04700      136.35300
C        173.56000      140.97600      137.43100
O        172.49200      140.70200      137.99400
C        173.75800      141.41500      134.97400
C        173.53800      142.38500      133.83800
C        173.69100      141.72700      132.48500
O        173.76000      140.48200      132.43900
O        173.74400      142.45200      131.47000
N        174.70200      140.36400      137.74200
C        174.71100      139.34300      138.78300
C        174.30900      139.92700      140.13000
O        173.59300      139.28700      140.90800
C        176.08800      138.69900      138.87700
C        176.48400      137.89000      137.66800
C        177.88200      137.35200      137.85200
C        178.27900      136.41900      136.73500
N        179.66000      135.90400      136.94300
N        174.76000      141.14200      140.42200
C        174.45000      141.74600      141.71000
C        172.97900      142.09000      141.80900
O        172.38900      141.99700      142.88400
C        175.29700      142.99100      141.93200
N        172.37100      142.50700      140.70600
C        170.92900      142.69100      140.69700
C        170.22700      141.37700      140.98600
O        169.29400      141.31700      141.79400
C        170.49300      143.25600      139.35100
C        169.00500      143.33700      139.16900
C        168.67100      143.90100      137.80600
C        169.42100      145.19400      137.55500
N        169.24200      145.67400      136.16100
N        170.68000      140.30500      140.33900
C        170.07100      139.00200      140.57100
C        170.17600      138.59800      142.03000
O        169.26500      137.97300      142.57800
C        170.73000      137.95100      139.68800
C        169.74700      137.00400      139.06300
C        168.59800      137.73600      138.41100
O        167.46600      137.65400      138.93100
O        168.82900      138.40200      137.38100
N        171.28600      138.93300      142.67200
C        171.46800      138.53900      144.06200
C        170.65500      139.42600      144.98900
O        170.01900      138.94300      145.92900
C        172.95900      138.55900      144.42200
C        173.60400      137.24700      143.99700
C        173.14300      138.79300      145.89600
C        174.97200      137.03500      144.56500
N        170.65200      140.73000      144.73600
C        169.99100      141.66200      145.63100
C        168.48300      141.55700      145.54600
O        167.78900      141.87600      146.51600
C        170.42500      143.08100      145.30900
C        171.83000      143.39000      145.77400
C        172.31300      144.62400      145.09100
C        171.80900      143.58800      147.25300
N        167.95100      141.12300      144.40500
C        166.50600      141.03600      144.29100
C        165.91300      140.06500      145.29800
O        164.71600      140.14300      145.58200
C        166.11200      140.62900      142.87800
O        164.82900      141.17600      142.57300
C        166.02800      139.12600      142.76500
N        166.70900      139.15400      145.83900
C        166.24200      138.24600      146.88400
C        166.60400      138.75400      148.26900
O        167.19300      138.03200      149.06300
C        166.80800      136.85600      146.65300
C        166.64400      136.37100      145.23800
C        167.61000      135.25300      144.94000
C        167.66600      134.97200      143.45500
N        168.71200      133.96900      143.12800
N        166.24700      139.99300      148.58800
C        166.57200      140.55600      149.89300
C        165.49900      141.55500      150.28000
O        165.24000      142.50300      149.53500
C        167.94100      141.22100      149.87600
C        169.07600      140.26600      150.13600
C        170.40100      140.96800      150.28500
O        170.41800      142.21200      150.23800
O        171.42700      140.27700      150.44200
N        164.88900      141.35000      151.43900
C        163.82000      142.22700      151.87400
C        164.36200      143.61900      152.15800
O        165.56800      143.83700      152.25000
C        163.15500      141.68200      153.12800
O        163.70400      142.31000      154.27100
N        163.44600      144.57200      152.31200
C        163.85900      145.92200      152.65300
C        164.53900      145.97600      154.00400
O        165.25300      146.94100      154.28600
C        162.66400      146.86500      152.63800
C        161.78500      146.66000      151.43200
O        162.17800      146.00900      150.47100
N        160.58900      147.22000      151.47200
N        164.34900      144.96500      154.84100
C        164.98000      144.90200      156.15100
C        165.62000      143.52200      156.29600
O        164.94100      142.52400      156.55800
C        163.99700      145.21900      157.28300
C        162.82700      144.26700      157.30800
C        164.70700      145.21100      158.60400
N        166.93100      143.46200      156.10500
C        167.64000      142.20000      156.00000
C        168.04400      141.68700      157.37100
O        168.23900      142.45600      158.31200
C        168.87500      142.36100      155.11900
C        169.34600      141.08000      154.48200
C        168.27400      140.41500      153.64700
O        167.39600      141.07800      153.09400
N        168.33800      139.09300      153.55000
N        168.17500      140.37100      157.47300
C        168.54300      139.71200      158.71400
C        169.93100      139.11600      158.57600
O        170.22500      138.44300      157.58700
C        167.54200      138.62000      159.06800
C        166.13700      139.12900      159.26200
C        165.51800      138.63400      160.55100
O        166.19900      137.90300      161.29800
O        164.35000      138.97900      160.82000
N        170.77500      139.35600      159.57100
C        172.15300      138.89100      159.56100
C        172.42100      138.12300      160.84600
O        171.95400      138.51200      161.92000
C        173.13700      140.06300      159.41600
C        174.43400      139.56800      158.83800
C        172.55000      141.13200      158.54200
N        173.19400      137.04900      160.74500
C        173.38500      136.15700      161.87700
C        174.34400      136.79900      162.87700
O        174.70200      137.97300      162.77200
C        173.85500      134.78900      161.39500
C        173.56300      133.63500      162.35900
C        172.26400      133.84800      163.12000
N        172.11500      132.93800      164.25500
C        172.24200      133.29500      165.53000
N        172.52100      134.55000      165.85000
N        172.08500      132.39600      166.49000
N        174.77500      136.01200      163.86400
C        175.31200      136.57000      165.10400
C        176.54400      137.43500      164.88500
O        176.47300      138.65000      165.13200
C        175.57200      135.42600      166.08900
S        175.08700      135.75700      167.78200
N        177.67900      136.90900      164.42400
C        178.90100      137.71400      164.43500
C        179.06800      138.53600      163.17400
O        179.08100      137.97400      162.07700
C        179.99500      136.65500      164.54600
C        179.39200      135.43600      163.88600
C        177.91000      135.64400      163.71600
N        179.21800      139.85200      163.29200
C        179.39100      140.71300      162.13300
C        180.32600      141.85700      162.49000
O        180.73800      142.02400      163.63800
C        178.06200      141.27600      161.60900
C        177.39900      140.28700      160.70500
C        177.17800      141.62800      162.75900
N        180.64200      142.66000      161.48500
C        181.46600      143.84400      161.66000
C        180.81700      144.95800      160.86300
O        180.90100      144.97100      159.63400
C        182.89000      143.59700      161.19300
O        183.46200      142.54400      161.97100
C        183.71100      144.83800      161.36900
N        180.17300      145.87400      161.55800
C        179.42600      146.95200      160.93300
C        180.37100      148.09900      160.62600
O        181.16400      148.50800      161.48100
C        178.28800      147.41900      161.84600
C        177.47300      148.47500      161.15900
C        177.43000      146.25000      162.22400
N        180.28600      148.61900      159.40600
C        181.05900      149.77600      158.99300
C        180.14400      150.73200      158.25000
O        179.23800      150.30800      157.53200
C        182.22400      149.38700      158.09400
S        182.87500      147.75300      158.41300
N        180.39500      152.02200      158.40600
C        179.45300      152.98900      157.89200
C        179.87100      153.73800      156.64700
O        180.22900      153.13900      155.63300
N        179.79700      155.06200      156.72300
C        180.10200      155.92700      155.59500
C        181.51300      155.64500      155.09400
O        182.47300      155.67400      155.86400
C        179.95700      157.38300      156.05000
C        179.17100      158.23900      155.08300
O        178.00100      158.56000      155.38300
O        179.70900      158.63900      154.03800
N        181.63900      155.32700      153.80300
C        182.92600      155.03200      153.18200
C        183.34700      156.13300      152.22000
O        184.45200      156.66700      152.31900
C        182.90900      153.67100      152.46100
C        184.28400      153.37000      151.90600
C        182.47100      152.58900      153.39500
N        182.48900      156.45900      151.25800
C        182.69600      157.58300      150.35100
C        183.96100      157.40700      149.51400
O        184.87800      158.22400      149.53900
C        182.72400      158.89900      151.12100
C        181.36800      159.41500      151.46100
N        180.26900      159.18600      150.66600
C        180.92900      160.14300      152.51100
C        179.21100      159.75500      151.21100
N        179.58400      160.34100      152.33300
N        183.99400      156.31200      148.77100
C        184.96800      156.14500      147.71400
C        186.42500      156.15200      148.11800
O        187.29500      156.01500      147.25800
N        186.72100      156.30100      149.40400
C        188.10900      156.29600      149.84100
C        188.66400      154.88300      149.79600
O        188.84900      154.24900      150.83600
C        188.22500      156.87400      151.24300
C        187.58500      158.22200      151.36600
C        188.01400      158.94900      152.60500
O        188.74500      158.41100      153.42600
N        187.56400      160.18400      152.75200
N        188.95500      154.39900      148.58900
C        189.23700      152.98200      148.40100
C        190.44800      152.53500      149.19500
O        190.44900      151.44200      149.76600
C        189.44800      152.68500      146.92700
C        189.84000      151.28100      146.65000
C        191.16400      150.92200      146.58200
C        188.88400      150.32000      146.44000
C        191.52300      149.62900      146.32500
C        189.23900      149.02600      146.17900
C        190.55900      148.67900      146.12300
N        191.50400      153.33800      149.21500
C        192.68000      152.92500      149.96600
C        192.37300      152.83700      151.45100
O        192.91400      151.97500      152.15200
C        193.83400      153.87600      149.68000
C        194.37000      153.75100      148.28900
N        194.18400      154.71800      147.32700
C        195.05900      152.75300      147.68800
C        194.75000      154.33000      146.19900
N        195.28600      153.13900      146.39100
N        191.45900      153.66900      151.93800
C        191.02700      153.54100      153.32000
C        190.12200      152.33900      153.52400
O        190.11100      151.76200      154.60900
C        190.33500      154.81900      153.76200
C        191.26500      155.99900      153.73400
O        192.30600      155.94100      154.41900
O        190.97800      156.96800      153.00700
N        189.37600      151.93000      152.50200
C        188.66600      150.66000      152.58900
C        189.64300      149.49800      152.70200
O        189.41000      148.54600      153.45500
C        187.76900      150.48300      151.37500
C        187.21500      149.08400      151.19900
C        186.31100      148.78200      152.34500
C        186.46300      148.98200      149.90900
N        190.73800      149.55000      151.94800
C        191.77100      148.53500      152.09600
C        192.34600      148.55000      153.50000
O        192.55400      147.49400      154.10700
C        192.87400      148.75300      151.07000
C        192.40100      148.64600      149.64800
S        191.54700      147.09400      149.36100
C        192.89600      145.94100      149.56800
N        192.61700      149.73800      154.03200
C        193.08100      149.82700      155.41100
C        192.07400      149.20800      156.36400
O        192.44400      148.50100      157.30700
C        193.33300      151.27900      155.78600
C        193.48000      151.50100      157.26800
C        194.89100      151.25800      157.74300
O        195.75700      150.94500      156.90200
O        195.14000      151.37900      158.95900
N        190.79300      149.46300      156.13200
C        189.75100      148.87400      156.95800
C        189.86100      147.36200      156.95200
O        189.99800      146.73400      158.00300
C        188.38300      149.31900      156.45500
C        187.15600      148.80800      157.18700
C        186.13100      149.89800      157.18700
C        186.60700      147.59600      156.50000
N        189.82200      146.76800      155.76400
C        189.95700      145.32500      155.61600
C        191.18200      144.81700      156.35100
O        191.15400      143.74200      156.95200
C        190.05800      144.93900      154.14900
C        188.74600      144.79900      153.47800
C        187.62800      145.38500      154.00700
C        188.62800      144.07700      152.32100
C        186.42200      145.25900      153.39100
C        187.42300      143.94800      151.70700
C        186.31700      144.54100      152.24300
N        192.26300      145.58900      156.30500
C        193.46400      145.20000      157.03000
C        193.22800      145.22500      158.53100
O        193.83900      144.45200      159.27300
C        194.62000      146.11900      156.65500
C        195.97200      145.53300      156.94200
C        197.05300      146.24800      156.17200
N        196.74700      146.29300      154.75000
C        196.58100      147.41400      154.06300
N        196.70200      148.58400      154.66800
N        196.30100      147.36400      152.77000
N        192.35300      146.11100      158.99700
C        192.10500      146.19500      160.43400
C        191.18000      145.07600      160.89100
O        191.45600      144.39000      161.88000
C        191.54000      147.57300      160.81600
C        192.65400      148.53100      161.21100
C        190.60700      147.44700      161.98500
C        193.85400      148.48800      160.33100
N        190.07900      144.86600      160.18300
C        189.03400      144.00400      160.68700
C        189.01900      142.62600      160.07400
O        188.13800      141.81800      160.37300
N        189.97500      142.34100      159.21000
C        190.07000      141.01700      158.62800
C        189.69400      141.02000      157.16600
O        189.05200      141.94400      156.66300
N        190.07900      139.95700      156.47400
C        189.85400      139.87700      155.04900
C        188.37700      139.66300      154.75700
O        187.52600      139.67900      155.64500
C        190.68200      138.75200      154.44200
C        192.17000      138.97800      154.53500
C        192.55800      140.26500      153.84400
C        192.31800      140.17200      152.35200
N        193.08800      139.05500      151.75200
N        188.07700      139.46100      153.47900
C        186.67900      139.46200      153.06000
C        185.91100      138.23900      153.53500
O        184.91200      138.41100      154.25300
C        186.60200      139.64100      151.54600
O        187.62800      138.91800      150.89300
N        186.28800      137.00300      153.19700
C        185.40900      135.88600      153.55300
C        185.51200      135.49800      155.00900
O        184.56700      134.93200      155.56300
C        185.90200      134.77200      152.63600
C        187.35000      135.01400      152.57400
C        187.56700      136.50700      152.66100
N        186.64600      135.78300      155.64500
C        186.82800      135.39300      157.03500
C        185.91400      136.17900      157.95500
O        185.31600      135.61200      158.87200
C        188.28000      135.58700      157.44700
C        189.23800      134.87300      156.53000
O        188.88400      133.78400      156.03700
O        190.34300      135.40100      156.29600
N        185.78600      137.47700      157.73000
C        185.01100      138.33700      158.60600
C        183.73000      138.75900      157.91000
O        183.75800      139.17000      156.74900
C        185.81700      139.56500      159.00800
O        187.06500      139.14600      159.56200
C        185.06600      140.36100      160.04100
N        182.61200      138.65600      158.61700
C        181.33800      139.10300      158.08200
C        181.22300      140.61300      158.23000
O        181.43400      141.15200      159.32000
C        180.18500      138.41700      158.80600
C        180.29300      136.91600      158.77600
O        179.79200      136.23100      159.66000
N        180.94100      136.39200      157.75300
N        180.87600      141.29600      157.14300
C        180.81000      142.74700      157.14200
C        179.39000      143.21800      156.88800
O        178.54000      142.47500      156.39600
C        181.73300      143.35200      156.09000
C        183.16400      143.40800      156.52400
C        183.59300      144.34500      157.43900
C        184.08400      142.52000      156.02200
C        184.89700      144.39200      157.83600
C        185.38700      142.56200      156.41300
C        185.78900      143.49600      157.31900
O        187.10200      143.52600      157.70600
N        179.15100      144.47900      157.22800
C        177.86300      145.11900      156.99300
C        178.13500      146.59000      156.73800
O        178.55400      147.30400      157.64900
C        176.93500      144.93700      158.17900
C        175.61600      145.68600      158.07500
C        174.86300      145.19700      156.87800
C        174.80100      145.47800      159.31700
N        177.90700      147.03700      155.51400
C        178.23400      148.39400      155.10100
C        176.94400      149.17800      154.97000
O        176.04900      148.79000      154.21600
C        179.00400      148.39200      153.79000
C        180.37700      147.84300      153.91100
C        181.33300      148.51800      154.62900
C        180.71100      146.65400      153.31000
C        182.59000      148.01900      154.74300
C        181.96600      146.15100      153.42100
C        182.90800      146.83300      154.13700
N        176.84800      150.27700      155.70500
C        175.63200      151.08000      155.72100
C        175.76400      152.31000      154.82000
O        175.75400      153.45200      155.26500
C        175.29500      151.45500      157.15400
C        175.36800      150.25800      158.06300
S        174.85600      150.58000      159.74100
C        175.95600      151.91100      160.13800
N        175.90400      152.04900      153.52500
C        175.64800      153.05800      152.51500
C        176.71500      154.12600      152.36100
O        177.80000      154.07400      152.93700
N        176.37000      155.12900      151.54700
C        177.25000      156.25400      151.23800
C        178.59400      155.77000      150.70100
O        179.65100      156.14900      151.19900
C        177.45900      157.15500      152.45900
C        176.33800      158.16800      152.66400
O        176.47500      159.05800      153.51700
O        175.29600      158.07600      152.00600
N        178.56800      154.92200      149.67700
C        179.82500      154.36700      149.18700
C        180.56300      155.34500      148.28900
O        181.78900      155.46000      148.36900
C        179.58700      153.06700      148.43200
C        178.66700      152.12300      149.13100
C        178.77200      151.90900      150.48700
C        177.69200      151.44700      148.43700
C        177.93300      151.05200      151.12800
C        176.84800      150.59000      149.07100
C        176.97200      150.39800      150.42000
O        176.12900      149.54200      151.07600
N        179.85000      156.04100      147.41400
C        180.48100      156.65700      146.25800
C        180.11700      158.12300      146.12500
O        179.11800      158.47700      145.49400
C        180.09000      155.89900      144.98400
C        180.92300      154.67300      144.87000
C        178.63800      155.51500      145.05000
N        180.94000      158.97500      146.73200
C        181.13300      160.36100      146.32300
C        182.13200      161.01900      147.25400
O        182.50800      160.43000      148.26900
C        179.83100      161.14800      146.30400
C        179.29700      161.33000      144.90000
O        180.10900      161.60300      143.99100
O        178.07400      161.18800      144.70100
N        182.56100      162.23500      146.92900
C        183.53000      162.96000      147.74300
C        184.80800      162.15600      147.93200
O        185.45400      162.22700      148.97700
C        182.93500      163.35500      149.09500
C        181.85000      164.40100      148.98400
C        180.73800      164.17800      149.99000
N        179.94700      165.38800      150.20300
C        178.84300      165.44800      150.94200
N        178.38600      164.36300      151.55000
N        178.19400      166.59600      151.07600
N        185.16400      161.37600      146.92100
C        186.37900      160.58700      146.95600
C        186.78700      160.24300      145.54700
O        185.94900      160.17000      144.64400
N        188.08600      160.04000      145.35000
C        188.58700      159.87400      143.99200
C        188.34200      158.46600      143.47800
O        187.98100      158.27300      142.31300
C        190.06600      160.22500      143.93800
C        190.30400      161.67900      144.22300
C        189.55900      162.65500      143.58400
C        191.25100      162.07800      145.15000
C        189.76000      163.98900      143.84600
C        191.46000      163.41000      145.42000
C        190.71300      164.36200      144.76500
O        190.92100      165.69400      145.03000
N        188.53300      157.46800      144.32800
C        188.37200      156.08100      143.90800
C        186.96900      155.57500      144.23300
O        186.77600      154.55400      144.88300
C        189.43700      155.21700      144.55900
C        190.82500      155.76000      144.39400
C        191.57200      155.46200      143.27300
C        191.39100      156.56700      145.36000
C        192.84000      155.95300      143.11600
C        192.65900      157.06100      145.21400
C        193.37900      156.75200      144.08800
O        194.65000      157.24400      143.93300
N        185.97400      156.31900      143.76000
C        184.59800      155.88600      143.96300
C        184.30400      154.62100      143.17700
O        183.75300      153.65300      143.71900
C        183.63700      156.99600      143.55800
O        183.78600      158.12100      144.40000
N        184.67200      154.60800      141.89800
C        184.37900      153.45500      141.06000
C        185.00500      152.19900      141.64100
O        184.35100      151.15800      141.74600
C        184.85200      153.71400      139.62200
C        186.20400      154.37400      139.63500
C        184.90700      152.41600      138.85100
N        186.27200      152.27700      142.04400
C        186.93400      151.10200      142.59200
C        186.26800      150.64600      143.87900
O        186.07900      149.44500      144.09300
C        188.40900      151.39300      142.83300
C        189.24200      151.38500      141.57800
C        189.57500      152.77600      141.10400
O        189.33200      153.73000      141.86300
O        190.07800      152.92000      139.97300
N        185.90700      151.58800      144.74800
C        185.26500      151.22300      146.00300
C        183.98300      150.45100      145.75500
O        183.80000      149.34000      146.27000
C        184.97400      152.47300      146.82200
O        186.20500      153.09400      147.20000
C        184.20700      152.11300      148.05500
N        183.07700      151.02400      144.96600
C        181.79200      150.36800      144.77600
C        181.96700      149.07100      144.00300
O        181.26200      148.08700      144.25200
C        180.79200      151.31800      144.10000
C        181.07000      151.44900      142.63200
C        179.38900      150.83800      144.33100
N        182.93800      149.02300      143.09000
C        183.17300      147.79200      142.35600
C        183.62500      146.69100      143.29100
O        183.15000      145.55800      143.20200
C        184.21600      148.01600      141.26900
O        183.94000      149.24000      140.58400
C        184.17900      146.88700      140.28500
N        184.53200      147.00900      144.20900
C        185.01000      146.00400      145.14400
C        183.88600      145.51800      146.03900
O        183.72000      144.31100      146.24000
C        186.14800      146.56400      145.98600
C        186.60300      145.62900      147.09800
C        186.97100      144.27700      146.53100
C        187.77100      146.22800      147.84200
N        183.11800      146.44500      146.61200
C        182.05500      146.02300      147.51500
C        181.03100      145.16700      146.79800
O        180.59000      144.14600      147.33500
C        181.38900      147.23000      148.15200
C        182.36000      148.04500      148.98900
C        181.63000      149.06600      149.81600
C        183.14900      147.12900      149.86900
N        180.67000      145.53400      145.57300
C        179.70000      144.74300      144.83100
C        180.28900      143.38800      144.46400
O        179.60000      142.36500      144.49500
C        179.22700      145.50800      143.58900
C        178.49300      144.59000      142.65900
C        178.34100      146.64500      144.00900
N        181.57500      143.35800      144.12000
C        182.20400      142.09600      143.76200
C        182.20900      141.14700      144.94200
O        181.94200      139.95200      144.79400
C        183.62400      142.34100      143.27000
N        182.50600      141.66700      146.12700
C        182.41200      140.85700      147.33000
C        180.99700      140.34400      147.51800
O        180.77100      139.13900      147.66500
C        182.84600      141.67200      148.53900
C        184.32700      141.98400      148.56700
C        184.65300      142.72000      149.82800
C        185.08900      140.69800      148.48900
N        180.02400      141.25500      147.50600
C        178.64100      140.86100      147.73200
C        178.21000      139.77700      146.76200
O        177.45000      138.87800      147.12500
C        177.72700      142.07200      147.61600
C        176.26600      141.75200      147.78000
C        176.01000      141.11100      149.11600
C        174.53300      140.95700      149.37400
N        174.29200      140.35900      150.70700
N        178.69200      139.83400      145.52500
C        178.33500      138.80300      144.56000
C        179.04200      137.50000      144.88700
O        178.44700      136.42000      144.82300
C        178.65600      139.26900      143.13500
C        178.46500      138.13500      142.17400
C        177.77200      140.41700      142.76200
N        180.32300      137.57300      145.23700
C        181.07200      136.35800      145.51700
C        180.59700      135.71400      146.81000
O        180.05600      134.60500      146.80200
C        182.56100      136.67600      145.58500
C        183.40300      135.53400      146.06200
C        183.44500      134.43800      145.04300
N        184.14500      133.27700      145.56500
C        183.54700      132.28400      146.20700
N        182.23900      132.31300      146.39700
N        184.25400      131.26100      146.65700
N        180.77400      136.40300      147.93100
C        180.35600      135.88200      149.22800
C        179.03000      136.51200      149.63800
O        178.95900      137.36200      150.52000
C        181.42800      136.14700      150.27100
C        182.81800      135.80000      149.83400
C        183.26800      134.49800      149.87600
C        183.68700      136.77800      149.40100
C        184.53400      134.17900      149.48900
C        184.95900      136.46900      149.01500
C        185.37700      135.16700      149.05900
O        186.65300      134.85200      148.66700
N        177.95600      136.05300      148.99900
C        176.66200      136.68000      149.22400
C        176.17100      136.53100      150.65100
O        175.24300      137.24500      151.04100
C        175.62600      136.10900      148.26700
C        175.05100      134.80200      148.70900
C        173.97500      134.36000      147.75800
N        174.49300      134.18100      146.40800
C        173.74700      133.83700      145.36500
N        172.44700      133.63300      145.51700
N        174.29800      133.69700      144.16900
N        176.76300      135.64000      151.43800
C        176.35100      135.45200      152.81900
C        177.24600      136.16400      153.81400
O        176.79400      136.46300      154.92200
C        176.32900      133.96300      153.16700
C        175.49400      133.12700      152.23100
C        174.02100      133.21100      152.55000
O        173.68800      133.57700      153.69600
O        173.19500      132.91400      151.66100
N        178.49000      136.44000      153.45200
C        179.46000      136.98600      154.38400
C        179.50400      138.50100      154.39000
O        180.26200      139.07400      155.17300
C        180.85400      136.45000      154.06600
C        180.90600      134.96300      153.85700
C        181.13300      134.24600      155.15700
N        179.90300      134.13200      155.92000
C        178.99800      133.18600      155.71900
N        179.19000      132.27500      154.77800
N        177.90100      133.15100      156.45700
N        178.72700      139.16900      153.54500
C        178.76700      140.62100      153.48500
C        177.40600      141.12900      153.04700
O        176.71600      140.49900      152.24400
C        179.88500      141.10700      152.54300
C        179.86500      142.62200      152.42100
C        179.72400      140.49300      151.19600
C        180.91300      143.15000      151.51300
N        177.01400      142.27300      153.59600
C        175.73800      142.88700      153.27500
C        175.93300      144.38500      153.14800
O        176.53700      145.01100      154.02100
C        174.69700      142.57900      154.34500
O        174.49800      141.16500      154.40700
C        173.38600      143.23800      154.00900
N        175.42300      144.95100      152.06400
C        175.58000      146.36300      151.76200
C        174.20500      147.00700      151.72300
O        173.26600      146.44800      151.15100
C        176.31600      146.56100      150.42800
C        175.82300      145.55300      149.40700
C        177.78300      146.37700      150.62100
C        176.60300      145.58500      148.13500
N        174.08900      148.18000      152.32900
C        172.82300      148.88300      152.43600
C        172.83500      150.13200      151.57200
O        173.89100      150.69800      151.28700
C        172.53600      149.27000      153.88100
C        172.59600      148.13000      154.88000
C        172.04500      148.58400      156.20000
C        171.81000      146.97200      154.34900
N        171.64700      150.55700      151.15800
C        171.52500      151.75400      150.34900
C        171.86200      152.98100      151.18000
O        171.80300      152.96500      152.40900
C        170.11700      151.88000      149.77800
C        170.04500      152.70500      148.52000
C        168.66300      153.24700      148.30800
N        168.55900      153.95100      147.04200
C        168.06000      153.40700      145.94700
N        167.62700      152.16000      145.97800
N        167.99300      154.10200      144.82700
N        172.23100      154.05500      150.49400
C        172.64500      155.25600      151.18200
C        172.18500      156.48900      150.44300
O        171.76600      156.43300      149.28800
N        172.28100      157.61700      151.14300
C        171.86800      158.89500      150.58300
C        172.50000      159.15200      149.22600
O        171.85400      159.69800      148.32800
C        172.21700      160.00800      151.56300
C        173.47500      159.71500      152.33800
O        173.42000      159.26500      153.48300
N        174.61600      160.00200      151.74500
N        173.75200      158.74100      149.04200
C        174.48000      159.01200      147.81100
C        174.34900      157.90200      146.79000
O        175.25600      157.70900      145.97800
C        175.95100      159.27000      148.11800
C        176.20900      160.60800      148.72100
N        177.47500      161.11900      148.88800
C        175.36000      161.54300      149.20200
C        177.39600      162.31300      149.44300
N        176.12300      162.59400      149.64400
N        173.25200      157.15900      146.80300
C        173.03500      156.10700      145.82500
C        171.98800      156.48000      144.79100
O        171.66100      155.66300      143.92700
C        172.64100      154.81300      146.52700
C        173.81600      153.93000      146.84800
C        174.77500      154.56600      147.82800
O        174.39500      155.55100      148.49200
O        175.91500      154.07400      147.94600
N        171.46100      157.68900      144.85300
C        170.46900      158.14300      143.89800
C        171.15500      158.87200      142.75600
O        172.16300      159.55300      142.94900
C        169.45500      159.05800      144.57600
O        170.11100      160.04400      145.34400
N        170.58900      158.72800      141.55800
C        171.22000      159.28200      140.36700
C        171.50000      160.76700      140.51600
O        172.54600      161.25600      140.07700
C        170.33700      159.02000      139.15700
C        169.83500      157.60900      139.11800
C        168.65200      157.46600      138.20700
N        167.99300      156.18100      138.39800
C        168.27900      155.09000      137.70000
N        169.21400      155.12800      136.76300
N        167.63100      153.96100      137.93900
N        170.58800      161.49900      141.14800
C        170.76300      162.93900      141.27700
C        172.00200      163.27600      142.09600
O        172.84800      164.07400      141.66800
C        169.51800      163.55200      141.90500
C        169.76900      164.87600      142.58400
C        168.55700      165.38200      143.33600
O        167.41900      165.17200      142.91600
N        168.79400      166.05500      144.45600
N        172.13200      162.67400      143.27800
C        173.22300      163.05300      144.16700
C        174.56300      162.64900      143.57700
O        175.55700      163.36500      143.72500
C        173.02600      162.44900      145.56300
C        171.60700      162.68600      146.04700
C        173.97800      163.08900      146.52600
C        171.27000      164.13700      146.20700
N        174.62600      161.49700      142.91300
C        175.87500      161.11500      142.26900
C        176.21100      162.08300      141.14900
O        177.32300      162.61500      141.08700
C        175.78900      159.69500      141.72700
O        174.97900      159.68700      140.54900
C        175.18700      158.78000      142.75900
N        175.25100      162.33100      140.25700
C        175.47100      163.27100      139.16800
C        175.97300      164.61100      139.66700
O        176.74600      165.28100      138.97700
C        174.18000      163.47000      138.38900
C        174.39200      163.94500      136.98700
C        173.34500      163.40000      136.05600
O        172.32500      162.87700      136.49900
N        173.58800      163.51000      134.75600
N        175.55100      165.02400      140.85600
C        176.00800      166.30400      141.38100
C        177.39800      166.17800      141.98700
O        178.32400      166.90500      141.61500
C        175.00800      166.86100      142.40300
C        175.66000      167.95900      143.21300
C        173.78900      167.38100      141.69300
N        177.57100      165.25100      142.91800
C        178.72900      165.26700      143.79700
C        179.96300      164.58900      143.22800
O        181.01800      164.66100      143.85500
C        178.37800      164.62800      145.13600
C        177.64300      165.56400      146.04300
C        176.28800      165.76500      145.89600
C        178.30300      166.25100      147.03900
C        175.60800      166.61900      146.71500
C        177.63200      167.11100      147.86700
C        176.28300      167.29100      147.70000
O        175.60200      168.15100      148.52600
N        179.88500      163.93400      142.08400
C        181.13300      163.50100      141.49400
C        181.22300      162.11200      140.92400
O        181.98900      161.89100      139.99100
N        180.47000      161.16100      141.46400
C        180.55500      159.80500      140.93300
C        180.34600      159.78300      139.42300
O        180.99000      158.99700      138.71900
C        179.54900      158.90200      141.62400
C        179.56900      157.49700      141.14400
C        180.74800      156.84400      140.91200
C        178.39000      156.82500      140.92500
C        180.76100      155.54700      140.46400
C        178.40000      155.53400      140.47800
C        179.58100      154.89800      140.25100
N        179.49600      160.66700      138.90000
C        179.35800      160.78000      137.45300
C        180.67600      161.18300      136.80500
O        181.07700      160.62200      135.77800
C        178.27700      161.79400      137.10700
C        177.82900      161.70800      135.67500
C        178.03800      160.55900      134.93700
C        177.19800      162.77000      135.06100
C        177.62900      160.46400      133.62600
C        176.78400      162.68600      133.74500
C        177.00200      161.52600      133.03400
O        176.59800      161.41900      131.72300
N        181.35800      162.16400      137.39300
C        182.60200      162.65600      136.81800
C        183.67800      161.58200      136.80000
O        184.40400      161.45200      135.81300
C        183.07800      163.87800      137.59000
C        181.98700      164.89200      137.75900
O        180.88100      164.62800      137.25200
O        182.21800      165.94300      138.38900
N        183.81700      160.81500      137.88200
C        184.79700      159.73500      137.86600
C        184.39200      158.63400      136.90500
O        185.24400      158.06800      136.21700
C        185.02000      159.17600      139.27000
C        185.89500      160.02300      140.19300
C        185.24500      161.29500      140.66800
O        184.66300      162.02000      139.84600
O        185.32700      161.59200      141.87800
N        183.10500      158.31100      136.83700
C        182.67800      157.33300      135.84600
C        183.10400      157.76300      134.45300
O        183.67800      156.97200      133.69400
C        181.16800      157.13800      135.90700
S        180.63800      155.77500      136.94000
N        182.88800      159.03400      134.12500
C        183.28000      159.53700      132.81400
C        184.79200      159.53100      132.64000
O        185.30200      159.02300      131.63800
C        182.73300      160.94200      132.61100
C        181.58100      161.00400      131.62600
C        181.06500      162.41900      131.56400
C        182.05000      160.53700      130.27100
N        185.52400      160.09600      133.59600
C        186.97400      160.17500      133.47800
C        187.58900      158.79600      133.30500
O        188.42300      158.58200      132.42000
C        187.55700      160.86800      134.70500
C        188.94900      160.39900      135.05600
C        189.64900      161.38600      135.96300
N        189.00400      161.51900      137.26400
C        188.27900      162.56800      137.63200
N        188.09000      163.57200      136.79000
N        187.73500      162.60900      138.83700
N        187.18500      157.84200      134.13400
C        187.82200      156.53600      134.10000
C        187.28300      155.68000      132.96600
O        187.89200      154.66700      132.61200
C        187.63500      155.83300      135.43900
C        188.20200      156.60900      136.60400
C        188.83700      155.69200      137.62800
C        189.59900      156.48400      138.67700
N        188.71400      157.39600      139.44800
N        186.14500      156.05100      132.38500
C        185.56900      155.22800      131.33700
C        185.23400      155.97400      130.05700
O        185.08400      155.32800      129.01500
C        184.30600      154.53400      131.85200
C        184.59900      153.30600      132.66200
C        184.60400      152.05600      132.07700
C        184.87300      153.39700      134.01200
C        184.87100      150.93000      132.81400
C        185.13800      152.27800      134.75700
C        185.13700      151.04800      134.15400
O        185.40600      149.92600      134.89600
N        185.11400      157.29600      130.09200
C        184.68600      158.00400      128.89600
C        183.28700      157.62600      128.46900
O        183.00900      157.52600      127.26900
N        182.40100      157.39900      129.43000
C        181.03600      156.99200      129.13700
C        180.16900      157.31300      130.33900
O        180.62500      157.88600      131.33000
C        180.94800      155.50100      128.81500
C        180.95300      155.22800      127.34000
O        179.90200      155.12900      126.71500
N        182.14000      155.09900      126.76900
N        178.90400      156.92800      130.23400
C        178.00200      156.88800      131.37000
C        177.44400      155.49200      131.57900
O        176.67200      155.27200      132.51800
C        176.86700      157.89500      131.18600
N        177.82500      154.54600      130.72100
C        177.30900      153.18800      130.81800
C        177.56600      152.60200      132.19500
O        176.69700      151.93400      132.76800
C        177.95400      152.32900      129.74400
C        178.23700      153.11100      128.49800
O        177.70300      154.20300      128.30900
N        179.09900      152.57800      127.64500
N        178.75000      152.84800      132.74600
C        179.01300      152.42800      134.11300
C        178.04400      153.11300      135.06200
O        177.19000      152.46500      135.67000
C        180.47200      152.71500      134.48800
C        180.70100      152.38000      135.93300
C        181.39300      151.90900      133.60900
N        178.10300      154.44000      135.13300
C        177.19600      155.19400      135.98500
C        175.73500      154.85500      135.74800
O        174.91800      155.09100      136.63900
C        177.42200      156.68400      135.77800
C        176.51800      157.54300      136.57200
C        176.75100      158.04300      137.80700
C        175.23500      158.02300      136.17800
N        175.69100      158.80200      138.21800
C        174.74500      158.80400      137.23000
C        174.45200      157.86400      135.03800
C        173.50900      159.42700      137.17800
C        173.22900      158.48200      134.98800
C        172.76700      159.25300      136.04900
N        175.37700      154.30800      134.59000
C        174.02500      153.79100      134.43800
C        173.86300      152.46100      135.15400
O        172.88000      152.25800      135.87400
C        173.67600      153.62800      132.96400
C        173.26300      154.90500      132.28500
C        172.71100      154.62700      130.90000
C        172.26100      155.91300      130.22500
N        171.65000      155.66700      128.89100
N        174.81100      151.54500      134.95600
C        174.71700      150.23300      135.58500
C        174.69300      150.35700      137.09800
O        173.85200      149.75700      137.77400
C        175.89200      149.36700      135.15800
C        176.01400      149.18000      133.67800
C        174.90200      149.20200      132.86600
C        177.24700      148.96800      133.09400
C        175.01400      149.02600      131.51400
C        177.36800      148.79100      131.74600
C        176.25000      148.81800      130.96000
O        176.36900      148.63900      129.60600
N        175.61900      151.13200      137.64500
C        175.74100      151.21600      139.09000
C        174.52800      151.87800      139.71100
O        174.14300      151.53000      140.82600
C        177.01600      151.95100      139.47000
C        178.20700      151.06100      139.52200
C        178.08300      149.76000      139.95600
C        179.44100      151.50700      139.11600
C        179.16400      148.93100      139.99500
C        180.52500      150.67800      139.15100
C        180.38700      149.38900      139.59100
N        173.88400      152.79600      139.00400
C        172.67800      153.38300      139.56500
C        171.49900      152.42700      139.46500
O        170.72800      152.28100      140.42300
C        172.37800      154.69200      138.86400
O        172.60700      154.52800      137.46400
C        173.30000      155.75500      139.38800
N        171.34300      151.75600      138.32600
C        170.30700      150.74100      138.23200
C        170.54400      149.59300      139.19400
O        169.63300      148.79100      139.41500
C        170.21700      150.21500      136.80700
C        170.01700      151.31900      135.80100
O        170.01200      152.49700      136.21600
O        169.86100      151.01400      134.60200
N        171.74400      149.48200      139.74700
C        171.99300      148.53700      140.82400
C        171.65600      149.13600      142.18000
O        171.02800      148.47700      143.01100
C        173.44900      148.08800      140.80600
C        173.78300      147.12400      141.93000
C        172.94700      145.88800      141.76300
C        175.24800      146.78500      141.90600
N        172.07000      150.38000      142.41500
C        171.70900      151.06400      143.64800
C        170.21400      151.05000      143.85600
O        169.74000      151.10100      144.99400
C        172.19300      152.50700      143.62600
C        173.67100      152.64800      143.62100
C        174.48100      151.56900      143.87900
C        174.25300      153.86600      143.36400
C        175.83800      151.70300      143.87200
C        175.61000      154.00400      143.36000
C        176.40400      152.92400      143.61500
N        169.46700      150.97900      142.79300
C        168.03200      150.93100      143.01600
C        167.56600      149.60500      143.56100
O        166.36600      149.37600      143.59400
C        167.29500      151.25800      141.72100
C        167.32400      152.73400      141.40100
O        167.30000      153.53700      142.35500
O        167.37700      153.09500      140.20700
N        168.43900      148.70300      143.99400
C        168.01800      147.44000      144.56500
C        168.53100      147.20700      145.97200
O        168.05400      146.28000      146.63200
C        168.48500      146.27200      143.69200
C        167.66000      146.05100      142.46200
C        167.57700      147.01300      141.48200
C        166.97800      144.86800      142.27300
C        166.83200      146.81000      140.35400
C        166.23200      144.65400      141.15100
C        166.16000      145.62900      140.19300
O        165.41000      145.42100      139.06400
N        169.48500      147.99900      146.44100
C        170.10500      147.74000      147.72800
C        169.05400      147.75500      148.83000
O        168.19400      148.63700      148.85000
C        171.17000      148.78900      148.02800
C        172.36800      148.82300      147.09600
C        173.31900      149.89600      147.54300
C        173.04600      147.49000      147.10400
N        169.08500      146.79900      149.75000
C        168.14000      146.83100      150.86200
C        168.33000      148.08900      151.68000
O        169.43900      148.59300      151.83600
C        168.49800      145.58200      151.66600
C        169.89100      145.32000      151.32000
C        170.03600      145.69300      149.88700
N        167.22400      148.60400      152.19700
C        167.27800      149.86000      152.92100
C        167.84000      149.69400      154.31900
O        168.48700      150.61100      154.82900
C        165.88800      150.47300      152.99800
C        165.25600      150.79800      151.65600
C        163.77900      151.01600      151.82300
C        165.90500      152.03400      151.10300
N        167.60700      148.55200      154.95700
C        167.94800      148.38900      156.36000
C        168.41600      146.96600      156.60500
O        168.19100      146.06800      155.79400
C        166.75400      148.68800      157.25700
O        165.62200      147.95800      156.77900
C        166.41300      150.15000      157.22200
N        169.05100      146.76000      157.75300
C        169.45300      145.43100      158.17500
C        169.11400      145.25100      159.64100
O        169.04500      146.21700      160.40200
C        170.94100      145.18800      157.96000
N        168.92000      143.99700      160.03100
C        168.48500      143.65300      161.38100
C        169.34400      142.49100      161.86100
O        169.11600      141.34300      161.47700
C        167.01200      143.29300      161.39300
C        166.44600      142.99000      162.76600
C        166.55800      144.22100      163.60500
C        165.01100      142.55300      162.65100
N        170.32000      142.79300      162.69500
C        171.26600      141.80000      163.17900
C        170.69900      141.12500      164.41300
O        170.34300      141.79700      165.39000
C        172.62100      142.44400      163.48700
C        173.45700      141.50100      164.30700
C        173.32200      142.78000      162.20600
N        170.63000      139.79400      164.36900
C        170.11600      138.97700      165.46700
C        168.78100      139.50300      165.96900
O        168.48400      139.45100      167.16100
C        171.12300      138.88400      166.61200
C        171.70800      137.49500      166.75800
O        171.50200      136.66900      165.84900
O        172.37100      137.22000      167.77800
N        167.97900      140.03600      165.05900
C        166.65100      140.49600      165.38800
C        166.57800      141.57700      166.44300
O        165.48200      141.93100      166.87700
N        167.71300      142.11200      166.87600
C        167.65900      143.12900      167.91400
C        168.63400      144.28000      167.71300
O        168.71900      145.14900      168.58700
C        167.89500      142.50400      169.28000
C        169.11700      141.64200      169.35300
C        169.33200      141.08300      170.73200
O        169.12000      139.89700      170.97300
N        169.75300      141.93700      171.65400
N        169.37600      144.32000      166.61200
C        170.18000      145.48300      166.25900
C        169.67500      146.00700      164.93100
O        169.60300      145.25600      163.95700
C        171.67200      145.14000      166.16500
C        172.11600      144.41200      167.41800
C        172.47300      146.39300      166.00900
C        172.05800      145.26000      168.63200
N        169.32300      147.28300      164.88500
C        168.79100      147.89400      163.67700
C        169.86600      148.76100      163.04900
O        170.27800      149.76300      163.63800
C        167.55900      148.72900      163.98700
C        166.75600      149.07700      162.78600
C        166.49300      148.13200      161.82800
C        166.25000      150.34200      162.62300
C        165.74900      148.44500      160.73000
C        165.50800      150.65600      161.52500
C        165.25800      149.70700      160.57800
N        170.31300      148.38900      161.85900
C        171.37800      149.10000      161.18000
C        170.82600      149.72000      159.91400
O        170.14500      149.04600      159.13900
C        172.52900      148.16100      160.85100
S        172.89700      146.98600      162.15200
N        171.11900      150.99800      159.70400
C        170.63300      151.68000      158.51600
C        171.36400      152.99900      158.36000
O        171.65000      153.67000      159.34800
C        169.12600      151.92000      158.59700
C        168.58400      153.07100      159.43500
C        167.09200      153.09500      159.31000
C        168.97200      152.94700      160.88500
N        171.66900      153.35800      157.12000
C        172.20800      154.67800      156.85900
C        171.18700      155.71800      157.27700
O        169.99300      155.44800      157.35600
C        172.55500      154.82700      155.38200
C        173.20200      156.12700      155.03500
N        174.14300      156.73200      155.83400
C        173.04500      156.93600      153.96400
C        174.53300      157.86200      155.27100
N        173.88100      158.01000      154.13500
N        171.66200      156.91000      157.57600
C        170.73600      157.95600      157.94600
C        170.06700      157.70300      159.27400
O        170.74300      157.62400      160.29800
N        168.74500      157.58200      159.27700
C        168.01100      157.38400      160.50900
C        166.60500      156.88700      160.26900
O        166.37100      156.15900      159.30300
N        165.65500      157.28000      161.11600
C        164.28800      156.78700      161.03300
C        163.32500      157.94700      160.82300
O        163.67300      159.11100      161.02000
C        163.90000      155.98300      162.27800
C        164.08200      156.57100      163.67100
C        163.16400      155.87400      164.62300
C        165.48400      156.37200      164.13700
N        162.10300      157.61100      160.42400
C        161.14700      158.54500      159.85300
C        159.82000      158.50100      160.58600
O        159.50000      157.51100      161.25000
C        160.90200      158.22300      158.37500
O        160.12000      157.05900      158.24400
N        159.01400      159.56200      160.47800
C        157.68200      159.51900      161.07900
C        156.72600      158.63900      160.32100
O        155.83800      158.03900      160.93500
C        157.24200      160.98400      161.04300
C        157.91200      161.51000      159.87700
C        159.26800      160.87000      159.86700
N        156.87600      158.52300      159.02500
C        155.96700      157.62300      158.34200
C        156.24800      156.20500      158.63100
O        155.62100      155.34200      158.02700
C        156.02800      157.86100      156.83800
O        155.99900      159.24400      156.55400
N        157.17100      155.91600      159.54000
C        157.56500      154.55600      159.86700
C        157.40200      154.35400      161.36200
O        157.92000      155.14000      162.16200
C        159.01100      154.26800      159.43500
C        159.08600      154.15800      157.92000
C        159.50200      153.00300      160.06700
C        158.11900      153.19100      157.36200
N        156.69100      153.30400      161.73300
C        156.42700      152.98000      163.12100
C        156.98500      151.63800      163.54400
O        157.32300      151.47100      164.71300
C        154.92200      152.97900      163.38000
C        154.22500      151.83000      162.69500
O        153.85600      150.86500      163.39200
O        154.06300      151.87600      161.45700
N        157.08700      150.67700      162.63300
C        157.61400      149.37000      162.97500
C        158.27300      148.76000      161.75400
O        157.96700      149.12500      160.61900
C        156.52500      148.43300      163.48400
O        157.09800      147.14700      163.74000
C        155.44400      148.28200      162.44600
N        159.17000      147.80600      162.00400
C        159.89900      147.16900      160.91700
C        158.96200      146.54400      159.90200
O        159.33400      146.37200      158.73900
C        160.84600      146.11700      161.47600
C        161.73800      146.65000      162.58500
C        162.79700      145.64100      162.92500
C        162.36900      147.93700      162.14400
N        157.74900      146.18900      160.32000
C        156.74700      145.76300      159.35500
C        156.50900      146.84500      158.32100
O        156.36700      146.55600      157.12900
C        155.44400      145.41700      160.06300
C        155.52100      144.11200      160.81600
O        156.51400      143.37900      160.62700
O        154.58800      143.81800      161.59400
N        156.48100      148.10200      158.75400
C        156.22200      149.18600      157.81800
C        157.32900      149.28600      156.78300
O        157.06200      149.34600      155.57900
C        156.06500      150.50000      158.56900
C        155.18300      151.48000      157.87300
N        154.32000      152.31400      158.54700
C        155.02500      151.75600      156.55800
C        153.66900      153.06400      157.67700
N        154.08000      152.74600      156.46300
N        158.58400      149.29800      157.23300
C        159.70700      149.33500      156.30400
C        159.64000      148.15300      155.36000
O        159.72000      148.30100      154.13800
C        161.03600      149.34900      157.06800
C        160.98200      150.37300      158.18300
C        162.15600      149.67400      156.13800
C        162.26300      150.49400      158.92100
N        159.48300      146.95800      155.91600
C        159.35400      145.76800      155.09900
C        158.16500      145.84200      154.15900
O        158.07400      145.02600      153.24000
C        159.24300      144.54800      156.00500
C        159.69800      143.26300      155.36800
C        159.48300      142.08600      156.29800
N        160.44700      142.03800      157.39100
C        160.17300      142.39400      158.63800
N        158.96700      142.83600      158.94900
N        161.10400      142.31300      159.57300
N        157.26100      146.79800      154.35800
C        156.08400      146.94700      153.51700
C        156.20400      148.10100      152.53600
O        155.18500      148.61400      152.07300
C        154.84200      147.13900      154.38100
N        157.41500      148.52800      152.21500
C        157.62100      149.62500      151.28800
C        157.87600      149.08700      149.88900
O        157.71500      147.89700      149.61500
C        158.77700      150.50500      151.74800
C        158.48000      151.38900      152.94700
C        159.61300      152.35200      153.17000
C        157.19400      152.12600      152.71700
N        158.27600      149.97300      148.98600
C        158.70200      149.59400      147.64300
C        160.05200      150.25400      147.39800
O        160.11400      151.42900      147.03100
C        157.68800      150.01700      146.59600
C        158.15900      149.73200      145.19400
O        159.09600      148.92900      145.04300
O        157.60200      150.30900      144.23900
N        161.12800      149.50000      147.58400
C        162.46900      150.05100      147.51100
C        163.06300      149.97100      146.12000
O        164.22500      150.33900      145.93500
C        163.38300      149.33400      148.50000
C        163.78000      147.95300      148.06200
C        164.84800      147.39400      148.95700
N        165.76200      146.53900      148.22200
C        165.56000      145.24900      148.01900
N        164.47900      144.67000      148.50400
N        166.44000      144.54000      147.33800
N        162.30000      149.51900      145.13800
C        162.82200      149.32600      143.79600
C        162.78000      150.57800      142.95700
O        162.80200      150.48400      141.72700
C        162.05400      148.21700      143.09000
C        162.66700      146.83300      143.21900
C        164.05800      146.88400      142.67300
C        162.68400      146.37800      144.64100
N        162.71100      151.74500      143.58100
C        162.62000      153.00400      142.87000
C        163.76900      153.89900      143.28900
O        164.41200      153.67500      144.31300
C        161.29600      153.70800      143.15700
C        161.16600      154.14800      144.58900
C        159.73500      154.32000      145.00600
O        158.82300      154.23500      144.19000
N        159.52400      154.54800      146.28700
N        164.02300      154.91500      142.47600
C        164.96500      155.95000      142.86300
C        164.43900      156.63100      144.12100
O        163.23800      156.62100      144.39300
C        165.12500      156.95000      141.71700
C        166.52000      157.54100      141.48200
C        166.85400      158.69700      142.38400
O        166.25900      158.79500      143.47600
O        167.70500      159.52300      142.00200
N        165.34300      157.20200      144.90800
C        164.95400      157.82900      146.17000
C        164.02400      158.99600      145.88200
O        164.45100      159.98200      145.27200
C        166.17000      158.30800      146.97300
C        165.72100      159.25900      148.06100
C        166.89000      157.14200      147.58500
N        162.76100      158.93100      146.29100
C        161.85700      160.05800      146.07000
C        162.27400      161.24100      146.92000
O        163.07100      161.11500      147.84700
C        160.50100      159.50700      146.50600
C        160.84800      158.48200      147.52200
C        162.10700      157.84700      147.03700
N        161.74300      162.41400      146.58200
C        162.15500      163.60100      147.31900
C        161.49000      163.68400      148.67900
O        162.04900      164.28100      149.60300
C        161.86000      164.86800      146.52600
C        162.66400      166.04500      146.97500
N        162.49000      166.63700      148.20800
C        163.66300      166.72900      146.36800
C        163.33900      167.64100      148.33700
N        164.06200      167.71800      147.23500
N        160.30400      163.10800      148.81800
C        159.65200      163.01600      150.11200
C        158.90400      161.70000      150.18800
O        158.21000      161.31100      149.24900
C        158.69800      164.18100      150.35800
C        157.79200      164.48900      149.19600
C        156.99300      165.75800      149.41300
O        155.83400      165.82200      148.95300
O        157.52400      166.69100      150.04900
N        159.06400      161.02300      151.31000
C        158.48600      159.72500      151.51900
C        159.06400      159.14200      152.78300
O        159.61500      159.85800      153.62000
N        158.93500      157.85800      152.96200
C        159.66400      157.21200      154.05100
C        161.09300      156.91100      153.64100
O        161.99600      156.91000      154.48000
C        158.85700      155.94000      154.30300
C        158.21400      155.66100      153.01400
C        157.96300      156.95800      152.33200
N        161.31500      156.67600      152.35000
C        162.67000      156.42000      151.88000
C        163.53500      157.66200      152.00500
O        164.65500      157.59700      152.51500
C        162.64400      155.92700      150.44100
C        162.32400      154.46600      150.31700
S        162.63300      153.85300      148.65900
C        164.31800      154.38300      148.43000
N        163.03300      158.80000      151.58000
C        163.84500      160.00700      151.69900
C        164.04700      160.41700      153.09200
O        164.58300      161.49800      153.29900
C        163.21700      161.16700      150.92600
S        164.36100      162.47200      150.41100
N        163.61800      159.66200      154.08700
C        163.95400      159.97400      155.46400
C        164.83900      158.92800      156.10400
O        165.74200      159.28100      156.85900
C        162.69600      160.13200      156.30500
C        161.65600      160.98100      155.63700
O        162.01900      161.74300      154.72000
O        160.47300      160.89200      156.02800
N        164.58600      157.64700      155.84000
C        165.47900      156.60400      156.32300
C        166.91900      156.92800      155.97300
O        167.80800      156.87700      156.82800
C        165.08600      155.25500      155.72900
C        163.75700      154.65900      156.15900
C        163.54500      153.33200      155.47900
C        163.73500      154.49500      157.65200
N        167.15800      157.30100      154.72500
C        168.49100      157.56200      154.21800
C        168.90400      159.00800      154.37000
O        169.94000      159.39600      153.83300
C        168.57700      157.17400      152.74900
C        167.65900      156.04800      152.31400
C        167.83900      155.81300      150.84700
C        167.97200      154.79200      153.07700
N        168.12100      159.82300      155.06100
C        168.49500      161.22100      155.21500
C        168.37100      161.74900      156.62700
O        169.04300      162.73100      156.94900
C        167.65700      162.09900      154.28800
C        168.16000      162.12500      152.90000
C        167.77700      161.32100      151.88000
C        169.14600      163.00300      152.37100
N        168.46600      161.64100      150.74200
C        169.31600      162.67300      151.02200
C        169.90500      164.03500      152.91100
C        170.21100      163.33700      150.20800
C        170.79000      164.68900      152.10400
C        170.93900      164.34000      150.76800
N        167.55900      161.14900      157.48700
C        167.35700      161.69400      158.81400
C        168.55900      161.40200      159.69600
O        169.47300      160.67300      159.31800
C        166.10500      161.10800      159.44200
O        166.44400      160.01200      160.26100
N        168.55200      161.97800      160.88800
C        169.65300      161.83900      161.82500
C        169.19000      162.26600      163.20400
O        168.35500      163.16400      163.33100
C        170.85300      162.69000      161.40200
C        170.44100      164.02800      160.86500
O        169.22500      164.26800      160.77600
O        171.32700      164.83900      160.53100
N        169.72800      161.66200      164.25400
C        169.32000      162.04100      165.60200
C        169.71600      163.46900      165.90800
O        170.38700      164.13900      165.12500
C        170.08800      161.06100      166.48500
C        171.28900      160.77200      165.71300
C        170.84300      160.71000      164.28700
N        169.29200      163.92900      167.07700
C        169.60000      165.27900      167.51100
C        169.23300      165.40500      168.97600
O        168.87900      164.42500      169.63100
C        168.84400      166.31800      166.69400
C        167.36500      166.12900      166.78800
O        166.61700      167.12000      166.64400
O        166.94900      164.97900      167.01000
N        169.31000      166.63500      169.47800
C        168.99200      166.87800      170.87800
C        167.51300      167.19700      171.05600
O        166.86600      166.67700      171.97100
C        169.86500      168.01000      171.40900
C        169.76400      168.18100      172.91500
O        168.88800      167.56100      173.54700
O        170.57600      168.95000      173.47200
N        166.96400      168.04800      170.19300
C        165.56800      168.44900      170.30700
C        164.64900      167.23800      170.23700
O        164.55500      166.57900      169.20000
C        165.21800      169.43000      169.19300
C        166.24000      170.52100      168.99400
C        166.68300      170.59200      167.55000
N        165.55500      170.74900      166.64200
C        165.62800      170.56500      165.33000
N        166.77700      170.21800      164.77500
N        164.55500      170.72600      164.57100
N        163.96200      166.95900      171.34100
C        163.10100      165.79000      171.40100
C        161.97300      165.86700      170.38700
O        161.63100      166.93700      169.88400
N        161.39400      164.71300      170.08300
C        160.38600      164.63700      169.05100
C        160.97500      164.93400      167.69300
O        162.17900      165.10200      167.52100
N        160.10000      165.00500      166.70200
C        160.56200      165.28900      165.35800
C        161.01800      166.73400      165.24300
O        160.71500      167.58100      166.08200
C        159.46700      164.99400      164.34500
C        159.21200      163.56500      164.27200
C        158.14000      162.90700      164.75600
C        160.07100      162.58300      163.71100
N        158.26400      161.56700      164.52000
C        159.44800      161.34500      163.87600
C        161.30700      162.63200      163.07700
C        160.01700      160.16900      163.43600
C        161.86600      161.46700      162.63800
C        161.22500      160.25200      162.82000
N        161.77400      167.00300      164.18600
C        162.29400      168.32900      163.93800
C        162.52700      168.49100      162.45600
O        162.22500      167.60300      161.66000
N        163.06200      169.64200      162.08900
C        163.37100      169.94600      160.70100
C        164.85900      169.73100      160.49000
O        165.68300      170.26900      161.23800
C        162.95600      171.37900      160.34100
C        161.48100      171.40500      159.97200
C        163.77300      171.89100      159.18100
C        161.15300      170.50100      158.82000
N        165.20600      168.94100      159.48600
C        166.60600      168.63600      159.26300
C        167.27500      169.78500      158.52200
O        166.86300      170.12800      157.41200
C        166.76000      167.35300      158.46000
O        165.97300      167.40500      157.28700
N        168.30900      170.39100      159.10100
C        169.04200      171.42900      158.36600
C        169.60800      170.93200      157.05500
O        169.97500      171.74300      156.19900
C        170.15000      171.83500      159.34500
C        170.24800      170.71000      160.30600
C        168.87600      170.15400      160.43300
N        169.68500      169.61600      156.87000
C        170.18300      169.07700      155.61400
C        169.22900      169.35800      154.46700
O        169.66500      169.51400      153.32300
C        170.41800      167.57900      155.75200
C        171.68400      167.10000      155.09400
C        171.83300      165.61000      155.25900
N        172.14100      165.24500      156.63200
C        173.27000      164.66000      157.00200
N        174.18800      164.37000      156.09500
N        173.47600      164.35900      158.27400
N        167.93300      169.42200      154.74300
C        166.93600      169.71300      153.73900
C        165.99200      168.57100      153.44300
O        164.89100      168.81400      152.93600
N        166.38500      167.33800      153.73500
C        165.51500      166.18400      153.58200
C        165.51500      165.39300      154.88100
O        166.44800      165.50000      155.67900
C        165.95500      165.30300      152.41600
N        164.46300      164.61600      155.10300
C        164.33900      163.87600      156.33800
C        164.20700      164.79400      157.53500
O        164.14000      166.01600      157.42300
N        164.17400      164.18600      158.71000
C        163.91500      164.91000      159.94200
C        165.01600      164.63000      160.95000
O        165.99400      163.95100      160.65900
C        162.54700      164.53400      160.50600
C        161.45700      164.58400      159.47700
C        161.14000      163.47400      158.72800
C        160.75400      165.74400      159.24800
C        160.15400      163.51300      157.78900
C        159.76500      165.79300      158.30800
C        159.46800      164.67400      157.58200
O        158.47700      164.71400      156.63500
N        164.85100      165.17200      162.14800
C        165.83800      165.05200      163.21100
C        165.13900      164.47500      164.43200
O        164.70000      165.21300      165.31300
C        166.46000      166.38400      163.51800
O        165.42600      167.34700      163.73800
C        167.31300      166.84100      162.36900
N        165.05800      163.15400      164.49300
C        164.32700      162.50100      165.56500
C        165.03600      162.68900      166.89400
O        166.21500      162.36500      167.03100
C        164.16400      161.01800      165.26200
C        165.44300      160.32000      164.94000
C        166.11600      159.61200      165.90600
C        165.96300      160.35400      163.66700
C        167.28400      158.97200      165.61100
C        167.13200      159.71300      163.37200
C        167.79200      159.02300      164.34300
N        164.31700      163.21100      167.87600
C        164.86900      163.37400      169.20000
C        165.04800      162.03700      169.88800
O        164.95300      160.96800      169.28600
N        165.30700      162.10500      171.19200
C        165.54500      160.87900      171.94400
C        164.27300      160.06600      172.08700
O        164.24900      158.87400      171.76400
C        166.11200      161.19000      173.32100
C        166.06800      159.98900      174.23500
C        166.83900      160.20100      175.51100
O        167.54200      161.19700      175.66700
N        166.72200      159.25800      176.43400
N        163.20800      160.69400      172.58400
C        161.96500      159.98100      172.84800
C        161.51100      159.17900      171.64200
O        161.02200      158.05400      171.78500
C        160.88600      160.97200      173.26300
C        161.01600      162.28700      172.54500
O        162.01100      162.45500      171.81500
O        160.13700      163.15300      172.71000
N        161.67400      159.73300      170.44500
C        161.30900      158.99700      169.24300
C        162.06300      157.68000      169.18500
O        161.47200      156.61100      168.99700
C        161.57600      159.84600      167.99400
C        160.83000      161.16900      168.09200
C        161.15400      159.09600      166.76400
C        159.35100      161.02800      167.96800
N        163.38000      157.73500      169.36800
C        164.18300      156.52300      169.27200
C        163.84500      155.55100      170.38600
O        163.79400      154.33800      170.16500
C        165.66400      156.87200      169.31400
O        165.91400      157.80800      170.33900
N        163.61900      156.06300      171.59200
C        163.30400      155.18900      172.71200
C        162.02100      154.41700      172.45200
O        161.98200      153.18500      172.58000
C        163.19500      156.00900      173.99300
C        162.75800      155.20600      175.19100
C        161.39800      155.62500      175.70300
O        160.86000      156.63200      175.19800
O        160.86300      154.95000      176.60800
N        160.95600      155.12600      172.07800
C        159.70400      154.43700      171.80800
C        159.82500      153.51200      170.61300
O        159.21100      152.44500      170.60500
C        158.57000      155.42300      171.57700
O        158.70000      155.99200      170.27400
C        158.58100      156.51200      172.62100
N        160.61300      153.88100      169.60700
C        160.78200      152.98900      168.46800
C        161.44400      151.68700      168.89300
O        160.96500      150.59200      168.56900
C        161.59600      153.68100      167.38600
C        161.67000      152.91500      166.10900
C        160.68700      153.04000      165.15900
C        162.72800      152.07400      165.85500
C        160.75900      152.34300      163.98600
C        162.80000      151.37800      164.68400
C        161.81600      151.51100      163.75000
N        162.55100      151.78900      169.62800
C        163.22600      150.59600      170.11500
C        162.26900      149.72300      170.90100
O        162.14800      148.52200      170.64200
C        164.41800      150.97900      170.98200
C        165.51400      151.62300      170.19800
O        165.36600      151.88200      169.01100
N        166.63000      151.89200      170.85300
N        161.56600      150.31400      171.86300
C        160.69400      149.50600      172.70400
C        159.59000      148.85800      171.88900
O        159.27600      147.68100      172.08300
C        160.11300      150.35500      173.82300
C        161.03400      150.50800      174.98600
N        160.84400      149.84300      176.17700
C        162.16600      151.23200      175.13400
C        161.81400      150.16200      177.01400
N        162.62900      151.00400      176.40600
N        159.00500      149.59700      170.95400
C        157.91200      149.05200      170.17100
C        158.37900      148.01900      169.16700
O        157.54500      147.30400      168.60700
C        157.17600      150.17100      169.44400
N        159.67900      147.92500      168.91100
C        160.17700      146.92400      167.98500
C        161.09900      145.90600      168.62500
O        161.58600      145.01100      167.93000
C        160.89100      147.60500      166.82500
C        160.00700      148.57700      166.12600
O        158.92200      148.22500      165.68100
N        160.44200      149.82000      166.04500
N        161.34900      146.00500      169.92100
C        162.20500      145.05400      170.58100
C        163.67500      145.19900      170.28600
O        164.47300      144.44500      170.84900
N        164.06300      146.13100      169.42300
C        165.47500      146.35200      169.16500
C        166.18300      146.76100      170.44300
O        165.61200      147.42300      171.31100
C        165.67200      147.44100      168.12000
C        164.69200      147.52000      166.96400
C        164.78500      148.88200      166.34300
C        165.01900      146.46600      165.95600
N        167.44000      146.36100      170.55700
C        168.25300      146.79000      171.67900
C        169.08400      148.01500      171.36100
O        169.53100      148.69800      172.28500
C        169.17500      145.65900      172.12400
O        169.60800      144.92600      170.97400
C        168.43900      144.72500      173.05400
N        169.28900      148.31000      170.08300
C        170.14600      149.40700      169.66800
C        169.96000      149.62900      168.18200
O        169.91500      148.66800      167.41300
C        171.60900      149.09500      169.97300
C        172.68100      149.98700      169.37800
C        173.69400      150.21600      170.43900
C        173.32800      149.31200      168.21000
N        169.85500      150.88900      167.78300
C        169.79400      151.25300      166.37600
C        171.12100      151.88700      165.99300
O        171.58900      152.83400      166.64000
C        168.60500      152.17300      166.07000
C        168.71900      153.46900      166.80800
C        168.53000      152.43400      164.59300
N        171.74900      151.33500      164.97000
C        173.04700      151.78500      164.51400
C        172.89500      152.43700      163.15500
O        172.07900      152.00500      162.33800
C        174.01700      150.62200      164.42400
O        173.50700      149.65800      163.53000
N        173.68900      153.46700      162.91400
C        173.54800      154.27900      161.72600
C        174.88800      154.92100      161.43500
O        175.79500      154.92400      162.26900
C        172.48400      155.34500      161.91500
C        172.80700      156.24900      163.05800
C        171.80900      157.35000      163.19100
N        171.88300      158.27800      162.07500
C        172.73800      159.28500      162.00600
N        173.59300      159.49400      162.98800
N        172.73200      160.08600      160.95900
N        175.00900      155.46600      160.23200
C        176.24000      156.14000      159.86000
C        175.91100      157.09600      158.72500
O        175.80600      156.67200      157.57500
C        177.29500      155.14300      159.44400
N        175.74400      158.36200      159.05400
C        175.46000      159.34600      158.03300
C        176.22300      160.63700      158.18000
O        176.40100      161.33400      157.17900
C        173.96500      159.66000      158.00700
C        173.55300      160.50600      156.85500
N        174.09900      160.36800      155.59600
C        172.65000      161.50800      156.77200
C        173.55200      161.26000      154.79300
N        172.66500      161.95700      155.47800
N        176.69000      160.98100      159.37000
C        177.27400      162.28800      159.58800
C        178.61600      162.13800      160.27900
O        178.82100      161.22800      161.08300
C        176.34400      163.17200      160.41000
C        175.90900      162.55400      161.70800
C        174.79600      163.32900      162.35800
O        173.90400      163.83300      161.68300
N        174.84800      163.44400      163.67600
N        179.52300      163.05100      159.95300
C        180.88400      162.99200      160.45900
C        180.90800      163.00400      161.97800
O        180.19000      163.77100      162.61900
C        181.68000      164.17700      159.92800
C        183.12500      164.21400      160.40000
C        184.01100      163.55700      159.36800
C        183.55900      165.63800      160.66800
N        181.74600      162.14600      162.55000
C        181.96600      162.12200      163.99000
C        183.45400      161.97400      164.25600
O        184.02600      160.89800      164.06200
C        181.16200      160.99600      164.64800
C        179.76000      161.45600      164.90700
C        181.13000      159.80600      163.73900
N        184.08800      163.05300      164.71300
C        185.54400      163.09000      164.76000
C        186.11400      161.99200      165.64300
O        187.22100      161.50800      165.39000
C        186.01400      164.46400      165.23100
C        185.68900      165.57300      164.24500
S        186.26400      167.19400      164.76300
C        188.02400      166.90000      164.85800
N        185.37700      161.57300      166.66800
C        185.84500      160.47300      167.49700
C        185.85500      159.15500      166.74200
O        186.60300      158.24600      167.11000
C        184.97300      160.36000      168.74500
C        185.37400      159.26100      169.70500
C        184.20500      158.77300      170.53900
O        183.14000      159.42200      170.50500
O        184.34300      157.73800      171.22500
N        185.05700      159.03600      165.68300
C        184.92000      157.81200      164.93200
C        183.58400      157.13400      165.13000
O        183.06300      156.52600      164.19100
N        183.01700      157.23600      166.32600
C        181.71600      156.65200      166.60900
C        181.14200      157.34800      167.82900
O        181.83900      157.52600      168.83000
C        181.82000      155.14800      166.84400
C        182.44700      154.77700      168.15700
C        183.78400      155.00700      168.39100
C        181.70300      154.19800      169.16000
C        184.36200      154.67200      169.58200
C        182.27300      153.86000      170.35400
C        183.60300      154.10000      170.56200
O        184.18200      153.76300      171.76000
N        179.88300      157.73900      167.73700
C        179.22100      158.49400      168.78400
C        178.01300      157.72800      169.29800
O        177.35300      157.00200      168.55000
C        178.79100      159.86700      168.27800
C        178.23100      160.73500      169.37400
O        178.58000      160.57500      170.54000
N        177.35100      161.66000      169.01100
N        177.73200      157.90300      170.58400
C        176.61100      157.26700      171.26900
C        175.54900      158.32800      171.52400
O        175.55500      158.98900      172.56100
C        177.05200      156.65100      172.57300
C        177.82100      155.40700      172.44600
C        179.16700      155.28500      172.41800
C        177.29400      154.08700      172.36700
N        179.51900      153.96700      172.31300
C        178.38000      153.21200      172.27900
C        176.00800      153.56200      172.35100
C        178.22000      151.84300      172.17800
C        175.85200      152.21000      172.26100
C        176.94800      151.36300      172.16700
N        174.62600      158.48300      170.58900
C        173.57400      159.46900      170.74800
C        172.31000      158.81300      171.28400
O        172.02000      157.64600      171.00100
C        173.28300      160.17900      169.42600
S        174.25000      161.68000      169.16400
N        171.56800      159.58900      172.07600
C        170.29800      159.17600      172.66700
C        170.48000      158.05100      173.67400
O        169.72000      157.08500      173.68400
C        169.28500      158.77900      171.60000
C        168.85100      159.91700      170.74300
N        168.18500      159.73900      169.55200
C        168.99200      161.25200      170.90100
C        167.93100      160.91700      169.01500
N        168.41000      161.85200      169.81400
N        171.49000      158.18400      174.53100
C        171.66200      157.31400      175.68900
C        171.70200      155.84400      175.26600
O        170.80400      155.05200      175.54700
C        170.55800      157.56200      176.71700
C        170.68700      156.67000      177.92200
O        171.64200      156.85900      178.70000
O        169.84300      155.76700      178.08300
N        172.75400      155.51900      174.52700
C        173.04500      154.16100      174.08800
C        171.93400      153.55900      173.24400
O        171.94100      152.35400      172.99600
C        173.34300      153.23900      175.27400
C        174.31400      153.80600      176.29200
C        175.59800      154.25300      175.63300
N        176.76300      154.07800      176.49200
C        177.48900      152.96900      176.53900
N        177.16200      151.93200      175.78500
N        178.53600      152.89200      177.34300
N        170.96600      154.35700      172.80800
C        169.96300      153.83700      171.89400
C        170.43000      153.89600      170.45400
O        170.14900      152.98100      169.67700
C        168.65400      154.61000      172.02700
C        167.99800      154.40700      173.36000
O        167.03600      153.65500      173.48200
N        168.51500      155.07900      174.37500
N        171.13700      154.95400      170.07600
C        171.57900      155.13600      168.70300
C        173.08900      155.25500      168.68600
O        173.67000      155.97800      169.50000
C        170.93700      156.37200      168.06300
C        170.99300      156.25200      166.57200
C        169.51300      156.51300      168.52800
N        173.72000      154.55300      167.75800
C        175.14900      154.68700      167.51600
C        175.34300      155.24000      166.12200
O        174.61600      154.87300      165.19900
C        175.89000      153.35200      167.66000
C        177.36700      153.57700      167.56500
C        175.56300      152.74500      168.96200
N        176.31500      156.12600      165.97000
C        176.74600      156.59600      164.66400
C        178.18400      156.15700      164.46600
O        179.03000      156.42500      165.32000
C        176.63600      158.11000      164.56200
O        175.25500      158.48400      164.53900
C        177.30500      158.59700      163.30600
N        178.46100      155.47100      163.36200
C        179.78800      154.90800      163.10800
C        180.25600      155.36800      161.73100
O        180.04000      154.69200      160.72400
C        179.81300      153.38500      163.21500
C        178.52300      152.80000      162.68500
C        179.99700      152.96300      164.63600
C        178.46100      151.33500      162.85800
N        180.95500      156.49200      161.69200
C        181.63400      156.91900      160.48200
C        182.85500      156.04400      160.25100
O        183.63300      155.80100      161.17500
C        182.05200      158.37200      160.62300
C        181.99600      159.14200      159.35900
C        180.80700      159.65000      158.90500
C        183.13600      159.37800      158.63700
C        180.75600      160.36500      157.75000
C        183.08800      160.09400      157.48200
C        181.89600      160.58800      157.03800
N        183.03600      155.57100      159.02600
C        184.14400      154.67900      158.71500
C        184.88300      155.15600      157.48300
O        185.15900      154.39500      156.55500
C        183.66100      153.25600      158.52100
O        182.51400      153.24500      157.70600
N        185.20400      156.44700      157.45200
C        186.01200      157.03300      156.38600
C        186.94000      158.04200      157.03800
O        186.51300      159.15300      157.38600
C        185.14600      157.69000      155.31800
N        188.20500      157.69800      157.22600
C        189.10300      158.57000      157.97900
C        189.56000      159.76500      157.16500
O        189.68700      159.70600      155.94100
C        190.27800      157.64900      158.30200
C        190.30600      156.71300      157.16100
C        188.89000      156.49700      156.73100
N        189.81700      160.86200      157.87600
C        190.26000      162.10900      157.26000
C        189.29500      162.55300      156.16900
O        189.69600      163.05400      155.12100
C        191.67500      161.98400      156.70700
C        192.52400      163.18200      157.03600
O        192.36500      163.79300      158.08900
N        193.42800      163.53300      156.13400
N        188.00600      162.35700      156.42100
C        186.98900      162.72700      155.44800
C        186.88600      164.23700      155.32500
O        187.08700      164.80300      154.24600
C        185.65700      162.12000      155.87200
C        184.45700      162.59300      155.11000
C        184.14600      162.05900      153.87800
C        183.61100      163.54300      155.64300
C        183.04300      162.47600      153.18900
C        182.50500      163.96400      154.96100
C        182.22500      163.42800      153.73400
O        181.11500      163.85000      153.05100
N        186.57300      164.90600      156.42700
C        186.50700      166.36200      156.46800
C        187.85400      166.84400      156.98300
O        188.16200      166.71900      158.17000
C        185.35200      166.82700      157.34700
S        185.28200      168.59400      157.63500
N        188.65900      167.39500      156.07600
C        190.06700      167.63000      156.36500
C        190.26900      168.72500      157.40100
O        191.26700      168.70400      158.12800
C        190.80300      167.96300      155.07400
C        190.68400      166.86800      154.04600
C        189.62300      166.83600      153.15700
C        191.62400      165.85400      153.97500
C        189.50700      165.83100      152.22200
C        191.51600      164.84600      153.04100
C        190.45600      164.84000      152.16800
O        190.34000      163.83900      151.23600
N        189.34800      169.68600      157.48800
C        189.45500      170.68800      158.54200
C        189.29300      170.04700      159.91100
O        189.89900      170.49200      160.89100
C        188.42200      171.79500      158.33700
C        186.98500      171.37500      158.58500
C        186.11100      172.54700      159.01100
N        186.05800      173.58700      157.99000
C        186.74700      174.72200      158.04300
N        187.54700      174.97000      159.07000
N        186.63800      175.60900      157.06500
N        188.48000      168.99700      159.99600
C        188.34600      168.22300      161.22000
C        189.40000      167.12600      161.30000
O        190.07900      166.98900      162.32100
C        186.93800      167.62800      161.31200
S        185.61100      168.82700      161.07000
N        189.56300      166.35500      160.23100
C        190.52100      165.27100      160.24200
C        190.09100      164.16000      161.17200
O        190.77000      163.86000      162.15700
N        188.95100      163.55100      160.87000
C        188.38400      162.51900      161.71600
C        189.17100      161.22500      161.59300
O        189.97100      161.03100      160.67700
C        186.94200      162.25000      161.32200
C        186.84400      161.57500      159.98300
O        187.67400      161.79600      159.10600
N        185.83400      160.74100      159.81400
N        188.90800      160.31500      162.52000
C        189.41800      158.95600      162.45800
C        188.23900      158.01400      162.30100
O        187.22600      158.17300      162.98300
C        190.21100      158.60500      163.70700
C        189.55500      159.04900      164.98200
C        190.26500      158.51300      166.19400
O        190.90000      157.46400      166.13800
N        190.16800      159.23100      167.30200
N        188.36500      157.04500      161.40800
C        187.24200      156.16700      161.15100
C        187.10100      155.14500      162.26700
O        188.00800      154.94000      163.07400
C        187.41300      155.46300      159.81600
N        185.95200      154.47700      162.29300
C        185.69300      153.46900      163.30600
C        184.74800      152.42300      162.74800
O        183.92700      152.70900      161.87900
C        185.09800      154.08100      164.57000
N        184.88200      151.20100      163.25100
C        183.97800      150.11300      162.91500
C        183.57000      149.41200      164.19800
O        184.22700      149.52700      165.23200
C        184.59800      149.10100      161.94200
C        185.74100      148.36000      162.61300
C        185.09300      149.79100      160.71400
C        186.40800      147.38400      161.70500
N        182.47200      148.67300      164.12100
C        181.91500      148.00100      165.28200
C        181.93800      146.50300      165.05400
O        181.65000      146.03700      163.95600
C        180.49200      148.46700      165.54300
C        179.90000      147.95100      166.82000
S        178.24100      148.57500      167.08500
C        177.37800      147.73100      165.77900
N        182.28500      145.74300      166.08000
C        182.30300      144.29400      165.99100
C        181.22700      143.74200      166.90100
O        181.21600      144.04200      168.09800
C        183.66100      143.72800      166.38900
C        184.83300      144.41900      165.75500
C        186.10000      143.60100      165.87100
O        186.82800      143.47900      164.86600
O        186.36900      143.07700      166.97100
N        180.32800      142.95100      166.33500
C        179.36800      142.17800      167.10100
C        179.89300      140.75400      167.16700
O        179.88400      140.03500      166.16200
C        177.98900      142.24000      166.46200
C        177.50300      143.66800      166.26500
C        176.10300      143.68000      165.72100
C        177.56300      144.39800      167.57300
N        180.35000      140.35600      168.34700
C        180.98900      139.06500      168.54200
C        179.93000      137.97500      168.63000
O        178.75100      138.18800      168.34300
C        181.86500      139.09000      169.78800
C        181.16100      139.70000      170.98000
O        181.82300      140.42200      171.75000
O        179.94600      139.47200      171.14700
N        180.35400      136.78300      169.04600
C        179.45700      135.64000      169.10100
C        178.29900      135.85200      170.06000
O        177.27900      135.16800      169.94100
C        180.23800      134.39700      169.50600
C        180.61500      133.55000      168.32600
O        180.16000      133.87600      167.21600
O        181.36300      132.56600      168.50200
N        178.43000      136.76900      171.01000
C        177.40300      136.99200      172.01500
C        176.77100      138.36700      171.87400
O        176.25500      138.91800      172.84500
C        177.97600      136.82400      173.41700
O        178.63000      138.03800      173.80700
C        178.98100      135.69300      173.43600
N        176.81400      138.93500      170.67200
C        176.19800      140.22900      170.39300
C        176.70500      141.31500      171.32900
O        175.95900      142.21500      171.71300
C        174.67500      140.14200      170.45800
C        173.95800      139.99900      169.12200
C        173.61900      141.36400      168.60100
C        174.82800      139.26500      168.12500
N        177.96800      141.23600      171.71700
C        178.60200      142.29300      172.48500
C        179.43500      143.13100      171.53100
O        180.31300      142.60500      170.84400
C        179.46800      141.72400      173.60300
C        179.89300      142.77700      174.60400
C        178.69000      143.56700      175.09500
C        179.11100      144.67700      176.03400
N        180.09500      145.58300      175.38800
N        179.15900      144.42600      171.48600
C        179.80700      145.30000      170.52700
C        181.13000      145.80200      171.07000
O        181.25900      146.10100      172.25700
C        178.91100      146.48100      170.17900
C        178.13800      147.02200      171.34300
C        178.74500      147.83700      172.28000
C        176.79300      146.73200      171.49800
C        178.04100      148.34200      173.34300
C        176.07900      147.23000      172.55700
C        176.70700      148.03600      173.47800
O        175.99500      148.53900      174.54100
N        182.11400      145.88200      170.18600
C        183.42700      146.40000      170.53700
C        183.95400      147.17900      169.34700
O        183.92100      146.68000      168.22300
C        184.38300      145.26900      170.90800
O        184.19600      144.15800      170.05000
N        184.42600      148.39100      169.58500
C        184.74200      149.29000      168.49100
C        186.23400      149.32400      168.21600
O        187.05900      149.16000      169.11500
C        184.24100      150.69200      168.79500
C        182.76000      150.78700      168.86100
C        182.03100      151.12000      167.74500
C        182.09300      150.52100      170.03200
C        180.67000      151.20300      167.80000
C        180.73100      150.60400      170.09000
C        180.01900      150.94500      168.97200
N        186.57000      149.54500      166.95200
C        187.94900      149.68500      166.51100
C        188.06300      150.99600      165.76200
O        187.36600      151.20100      164.76600
C        188.36600      148.53000      165.60600
C        188.01600      147.13200      166.08500
C        188.50300      146.13300      165.07600
C        188.65300      146.88400      167.43000
N        188.92800      151.87700      166.23300
C        189.14400      153.16000      165.59100
C        190.48600      153.13300      164.88800
O        191.49000      152.72600      165.47700
C        189.09600      154.29100      166.60800
C        187.93300      154.17700      167.54300
C        187.99000      155.19400      168.63800
O        188.32600      156.35000      168.40600
N        187.67200      154.77200      169.84900
N        190.49700      153.55400      163.63200
C        191.71400      153.55400      162.84400
C        191.82100      154.86500      162.09000
O        190.86300      155.63500      161.99100
C        191.76700      152.36500      161.88500
C        190.65600      152.33300      160.89400
C        189.42400      151.83000      161.23500
C        190.85000      152.78200      159.61000
C        188.40600      151.79200      160.32000
C        189.83100      152.74100      158.69200
C        188.61000      152.24500      159.04900
N        193.01000      155.11100      161.56700
C        193.39400      156.35600      160.93200
C        193.76100      156.09800      159.48000
O        193.95800      154.94500      159.08300
C        194.57600      156.97900      161.68400
C        194.16700      157.54000      163.02300
O        193.12000      157.11100      163.54500
O        194.88400      158.41200      163.55300
N        193.84500      157.14000      158.65200
C        194.06900      156.91500      157.22200
C        195.35100      156.14900      156.95900
O        196.29600      156.18200      157.74800
C        194.14400      158.33300      156.64800
C        194.42000      159.20400      157.81900
C        193.69400      158.57200      158.94500
N        195.37100      155.45100      155.82900
C        196.52200      154.65100      155.46500
C        197.73300      155.54600      155.21900
O        197.59400      156.74400      154.97200
C        196.21400      153.82500      154.21900
N        198.94000      154.98700      155.30300
C        200.13500      155.74500      154.91200
C        200.21800      155.84800      153.39700
O        200.30800      154.83600      152.69900
C        201.28500      154.91000      155.48400
C        200.73100      153.54200      155.58300
C        199.29100      153.71000      155.94000
N        200.18600      157.07300      152.89000
C        200.25300      157.30400      151.45500
C        201.68600      157.18300      150.95800
O        202.24500      156.08900      150.91400
C        199.68400      158.66700      151.11300
N        158.79300      117.23800      133.89900
C        158.42200      117.28800      132.49100
C        157.70600      118.59000      132.16900
O        156.62800      118.85700      132.69500
C        157.53500      116.09900      132.12600
C        157.92400      114.79000      132.79700
C        157.18100      114.56000      134.09700
O        156.58800      115.48300      134.65600
N        157.20100      113.32300      134.58000
N        158.31200      119.40300      131.30400
C        157.74000      120.70100      130.95400
C        158.27800      121.08700      129.57700
O        159.41900      121.54100      129.46800
C        158.09300      121.75000      131.99400
C        157.06800      121.93900      133.08100
C        155.72300      122.04900      132.77800
C        157.44800      122.03300      134.40700
C        154.78400      122.23200      133.76400
C        156.51700      122.21700      135.40000
C        155.18400      122.31600      135.07200
O        154.24600      122.49800      136.05900
N        157.45700      120.92000      128.55000
C        157.83600      121.27800      127.19100
C        156.99900      122.45700      126.72000
O        155.76700      122.41900      126.79100
C        157.67800      120.09000      126.24100
O        157.70700      120.55400      124.88800
C        156.38100      119.35600      126.50400
N        157.67600      123.50300      126.25900
C        157.02700      124.73500      125.82200
C        155.94900      124.43100      124.78700
O        154.85700      125.00700      124.86700
C        158.05800      125.74100      125.28900
C        158.86700      126.32100      126.44200
C        157.37200      126.85600      124.53500
C        158.04000      127.10600      127.40900
N        156.17700      123.55200      123.80700
C        155.05400      123.13700      122.95800
C        153.97500      122.41200      123.74300
O        152.78400      122.62500      123.50100
C        155.71700      122.22000      121.92700
C        157.09300      122.72900      121.83300
C        157.46200      123.12500      123.22800
N        154.37000      121.55400      124.68400
C        153.37800      120.87300      125.50000
C        152.60400      121.83100      126.38200
O        151.38200      121.72200      126.51600
N        153.30000      122.79700      126.97800
C        152.62500      123.80200      127.79100
C        151.70700      124.65200      126.92800
O        150.63000      125.07400      127.36100
C        153.66200      124.65700      128.53300
C        154.41000      123.78100      129.52800
C        153.00200      125.81800      129.21900
C        153.50900      122.83400      130.28400
N        152.11000      124.90000      125.68700
C        151.27500      125.67600      124.78600
C        150.01300      124.92200      124.41800
O        148.92300      125.49900      124.38700
C        152.06800      126.03900      123.54000
C        152.43100      127.51000      123.53800
C        151.26300      128.27800      122.97600
C        152.72300      127.95900      124.95700
N        150.14500      123.63500      124.11700
C        148.97300      122.79400      123.91100
C        148.06700      122.82000      125.13400
O        146.84200      122.95800      125.01100
C        149.43200      121.37400      123.57900
C        148.58000      120.29500      124.16400
N        147.49500      119.76000      123.50600
C        148.67000      119.63300      125.34000
C        146.94700      118.82000      124.25600
N        147.64300      118.72300      125.37400
N        148.65900      122.72700      126.32400
C        147.88300      122.77200      127.55700
C        147.07200      124.05700      127.65300
O        145.84800      124.02400      127.82300
C        148.82600      122.63700      128.75000
C        148.14300      122.57600      130.09000
C        147.87100      121.36300      130.69600
C        147.78600      123.73100      130.75700
C        147.25200      121.30700      131.92200
C        147.17000      123.68900      131.97800
C        146.90400      122.47500      132.55900
O        146.28600      122.43000      133.78500
N        147.74500      125.20100      127.55200
C        147.07300      126.48300      127.73200
C        146.05800      126.72400      126.62900
O        144.98800      127.28800      126.87100
C        148.10000      127.62100      127.80300
C        149.09800      127.36400      128.92400
C        147.40400      128.94200      128.00600
C        148.46100      126.98300      130.21800
N        146.37200      126.32200      125.40100
C        145.41500      126.49400      124.32100
C        144.15000      125.69800      124.59300
O        143.03300      126.21000      124.43000
C        146.04300      126.07400      122.99800
C        145.66900      126.96700      121.84700
C        144.17600      127.10900      121.70800
O        143.44900      126.12100      121.65700
N        143.70400      128.34700      121.65600
N        144.30400      124.44200      125.01900
C        143.13300      123.64600      125.36000
C        142.34300      124.29200      126.48500
O        141.11300      124.39000      126.41400
C        143.55300      122.22800      125.73700
C        143.88700      121.37100      124.55800
N        144.29900      121.89700      123.35300
C        143.84100      120.02800      124.38800
C        144.50900      120.91400      122.49500
N        144.24000      119.77000      123.09800
N        143.03300      124.75300      127.52500
C        142.33400      125.34900      128.65400
C        141.56600      126.59300      128.23700
O        140.43000      126.80300      128.67200
C        143.32500      125.68100      129.76100
C        144.00500      124.46500      130.33100
C        143.12600      123.72300      131.30200
O        142.41900      124.39000      132.08300
O        143.14000      122.47600      131.28500
N        142.16200      127.42800      127.39500
C        141.49500      128.66000      127.00700
C        140.29500      128.37600      126.12400
O        139.24000      129.00900      126.26600
C        142.47200      129.57500      126.29000
C        141.86000      130.82800      125.84700
C        141.54000      131.17600      124.57500
C        141.49000      131.92500      126.67200
N        140.99400      132.43000      124.55300
C        140.95200      132.91200      125.83300
C        141.56600      132.17100      128.04100
C        140.48800      134.12400      126.31700
C        141.10800      133.36900      128.51800
C        140.57600      134.33400      127.66200
N        140.43500      127.43300      125.19400
C        139.28300      127.05100      124.39100
C        138.17900      126.48800      125.27100
O        136.99000      126.72900      125.02500
C        139.69900      126.04300      123.32600
N        138.55400      125.74900      126.31500
C        137.56200      125.23500      127.24900
C        136.84200      126.37000      127.95900
O        135.61400      126.35000      128.09100
C        138.23100      124.31000      128.25800
C        137.27700      123.40300      128.96900
C        136.87200      124.00200      130.28500
N        138.02700      124.41100      131.07100
C        138.74300      123.58500      131.82400
N        138.42700      122.30000      131.88700
N        139.77800      124.04200      132.51300
N        137.59300      127.36200      128.43200
C        136.97200      128.52800      129.05000
C        135.96800      129.17400      128.11400
O        134.85100      129.51400      128.52300
C        138.02900      129.55200      129.44200
C        138.75900      129.21700      130.69300
C        138.48700      128.05300      131.37700
C        139.71600      130.07300      131.19000
C        139.16100      127.74600      132.53200
C        140.39100      129.77200      132.34100
C        140.11300      128.60800      133.01600
N        136.35400      129.37100      126.85800
C        135.46400      130.06500      125.93800
C        134.20900      129.25200      125.66400
O        133.10100      129.80500      125.61700
C        136.19800      130.38800      124.64500
C        137.15300      131.53100      124.81600
C        136.54000      132.65000      125.62300
O        135.62100      133.31400      125.10400
O        136.95800      132.85600      126.78100
N        134.35500      127.94000      125.49200
C        133.17400      127.11400      125.28800
C        132.27500      127.15200      126.51700
O        131.04400      127.16100      126.39500
C        133.58400      125.68300      124.93000
C        133.66200      124.68400      126.07100
S        132.07500      123.95600      126.52100
C        132.54900      122.96400      127.93200
N        132.86800      127.22300      127.70800
C        132.06400      127.25700      128.92100
C        131.29300      128.56200      129.02300
O        130.13100      128.58200      129.43400
C        132.94800      127.05900      130.14600
C        133.48200      125.65600      130.29700
C        132.49900      124.71500      130.95300
O        132.90900      123.99200      131.88400
O        131.32400      124.68600      130.53700
N        131.93000      129.66900      128.65700
C        131.23600      130.94800      128.74100
C        130.13000      131.03600      127.70000
O        129.06100      131.60500      127.96200
C        132.23300      132.09100      128.59900
C        133.32100      132.02500      129.65200
C        134.24000      133.22500      129.63000
N        135.40800      132.99500      130.47300
C        136.21900      133.95200      130.90400
N        135.99100      135.21400      130.57700
N        137.25700      133.64900      131.66600
N        130.34600      130.44600      126.52600
C        129.26300      130.36900      125.55200
C        128.10600      129.53200      126.08300
O        126.93300      129.89800      125.92300
C        129.77900      129.79300      124.23800
N        128.42100      128.39300      126.70000
C        127.39800      127.56700      127.33100
C        126.60100      128.36900      128.35300
O        125.36500      128.32400      128.37300
C        128.06300      126.36200      127.98900
C        127.13300      125.22700      128.26500
N        126.41600      125.12300      129.43700
C        126.81900      124.13400      127.53200
C        125.69200      124.01900      129.40900
N        125.91800      123.40100      128.26400
N        127.30400      129.09700      129.22300
C        126.64200      129.95800      130.19400
C        125.67600      130.90300      129.51500
O        124.53800      131.06800      129.95700
C        127.65400      130.78600      130.96800
C        128.58900      130.03600      131.79300
C        128.58300      128.70300      132.05100
C        129.70000      130.58000      132.48900
N        129.63300      128.38000      132.87300
C        130.33500      129.52200      133.15300
C        130.22300      131.86600      132.61200
C        131.46500      129.71100      133.93100
C        131.33700      132.05100      133.37800
C        131.95200      130.98300      134.02500
N        126.13200      131.57500      128.46300
C        125.28500      132.60200      127.87500
C        124.04300      131.99600      127.24200
O        122.93900      132.53600      127.39100
C        126.06400      133.42100      126.85600
C        125.38500      134.73400      126.50800
C        125.07900      135.58800      127.73200
O        125.81000      135.49700      128.74000
O        124.10000      136.36000      127.68200
N        124.19200      130.87100      126.54400
C        123.00900      130.27300      125.93400
C        122.04400      129.79600      127.01100
O        120.82600      129.98100      126.89500
C        123.38900      129.14700      124.95000
C        124.43900      129.63500      123.97500
C        123.86800      127.89900      125.66800
N        122.56700      129.22600      128.10000
C        121.68300      128.75000      129.15500
C        120.97500      129.91100      129.83300
O        119.79100      129.81500      130.17200
C        122.47400      127.93400      130.16900
C        121.61300      127.11900      131.10100
C        122.13000      125.70800      131.27000
O        123.18200      125.38700      130.68100
O        121.48400      124.91400      131.98400
N        121.67800      131.02300      130.02000
C        121.08000      132.18800      130.65500
C        119.96800      132.76400      129.79500
O        118.89200      133.10700      130.29700
C        122.15600      133.23300      130.91800
C        121.66300      134.53000      131.49700
C        122.85200      135.35600      131.93800
N        122.48500      136.70200      132.35700
C        123.35500      137.59900      132.80900
N        124.64000      137.29000      132.89600
N        122.94200      138.80500      133.17100
N        120.21000      132.87700      128.48900
C        119.16300      133.36900      127.60200
C        117.96300      132.43700      127.60900
O        116.81300      132.89200      127.62700
C        119.70500      133.53200      126.18400
N        118.21100      131.12800      127.60700
C        117.11500      130.16600      127.61800
C        116.28500      130.29400      128.88800
O        115.04700      130.27800      128.84600
C        117.67600      128.75600      127.46900
C        116.96400      127.70300      128.27700
C        117.61000      126.34600      128.12500
O        118.10900      126.04800      127.02100
O        117.62000      125.57700      129.10800
N        116.95200      130.43700      130.03100
C        116.22000      130.55700      131.28400
C        115.43900      131.85900      131.34300
O        114.30600      131.88300      131.83200
C        117.17600      130.45100      132.46500
C        117.77600      129.06400      132.67700
C        118.27700      128.92000      134.09900
C        116.76700      127.98100      132.34900
N        116.01900      132.95400      130.85400
C        115.28500      134.21400      130.85800
C        114.05500      134.13200      129.96800
O        112.98100      134.64000      130.32300
C        116.19400      135.35300      130.40800
C        116.00200      136.62500      131.19300
C        116.63500      136.54700      132.56100
O        117.24700      135.54200      132.91700
N        116.49200      137.61000      133.34100
N        114.19200      133.49300      128.80700
C        113.04100      133.32000      127.93400
C        111.96800      132.47900      128.60700
O        110.77700      132.79600      128.51300
C        113.47100      132.68400      126.61500
N        112.36700      131.40800      129.29400
C        111.38300      130.58600      129.98800
C        110.68300      131.38000      131.08400
O        109.47500      131.23100      131.30100
C        112.04700      129.34300      130.56800
C        111.21400      128.68300      131.63300
C        111.77700      127.34400      132.02400
N        111.77700      126.42300      130.89900
C        110.69200      125.80800      130.44700
N        109.51800      126.02200      131.02400
N        110.78000      124.98100      129.41700
N        111.43200      132.22600      131.79200
C        110.83500      133.06800      132.82500
C        109.76800      133.96300      132.21900
O        108.64500      134.05600      132.72700
C        111.91400      133.89900      133.53900
C        112.54800      133.09600      134.66200
C        111.32600      135.17500      134.10200
C        113.39700      133.92900      135.56300
N        110.11100      134.65000      131.13000
C        109.13500      135.53300      130.50000
C        107.92500      134.74900      130.01300
O        106.78300      135.21500      130.11900
C        109.78200      136.29800      129.35000
N        108.15700      133.54400      129.49400
C        107.06200      132.72100      128.99600
C        106.10500      132.35200      130.11700
O        104.88100      132.48800      129.98200
C        107.62800      131.46900      128.33300
C        106.72500      130.27600      128.40400
C        105.63300      130.16600      127.56300
C        106.98600      129.24800      129.28900
C        104.81100      129.06100      127.61700
C        106.16700      128.14100      129.34500
C        105.07800      128.04800      128.50900
N        106.64600      131.88000      131.23700
C        105.78400      131.50800      132.34800
C        105.10200      132.72300      132.95200
O        103.96900      132.61500      133.42000
C        106.57300      130.74700      133.40700
C        106.64100      129.24300      133.15000
C        107.16900      128.51500      134.36700
C        105.28400      128.69700      132.75100
N        105.75300      133.88600      132.93200
C        105.09400      135.10200      133.39700
C        103.88500      135.42800      132.53000
O        102.80400      135.77100      133.03600
C        106.08500      136.26100      133.39700
C        105.70900      137.38800      134.32700
C        106.34500      137.24300      135.68500
O        107.04600      136.27100      135.94800
N        106.10700      138.21300      136.56000
N        104.05300      135.33200      131.21300
C        102.92800      135.55700      130.32400
C        101.80300      134.57000      130.55700
O        100.62700      134.94700      130.59600
N        102.14800      133.29000      130.71500
C        101.12500      132.28300      130.97400
C        100.40800      132.55800      132.29000
O         99.19100      132.36400      132.40000
C        101.75200      130.89300      130.98000
C        100.93200      129.85200      131.70700
C        101.31300      128.44400      131.31700
O        101.04400      128.05400      130.16500
O        101.88200      127.72600      132.16200
N        101.15100      133.01700      133.29600
C        100.55700      133.38300      134.57500
C         99.51600      134.47600      134.39400
O         98.39000      134.36600      134.89200
C        101.65900      133.83500      135.53400
C        101.25800      133.90800      136.98600
C        100.90900      135.32400      137.37000
N        102.08600      136.16300      137.54700
C        102.70700      136.33100      138.70700
N        102.26500      135.71100      139.78900
N        103.76900      137.11800      138.78900
N         99.87900      135.54400      133.68400
C         98.92800      136.63200      133.46500
C         97.69800      136.14300      132.70500
O         96.55800      136.50300      133.03700
C         99.61000      137.77600      132.71900
C         98.68800      138.92900      132.35000
C         97.80000      139.35500      133.50600
C         96.60500      140.14600      133.00100
N         95.84800      140.80100      134.10200
N         97.91100      135.32300      131.67500
C         96.78300      134.81100      130.91200
C         95.83300      133.98900      131.75800
O         94.61200      134.15200      131.68400
N         96.38000      133.09800      132.58500
C         95.53200      132.30300      133.46300
C         94.83500      133.17000      134.50000
O         93.71200      132.86200      134.90600
C         96.35400      131.21300      134.14200
C         96.65500      130.02800      133.25000
C         95.48000      129.09300      133.12200
O         94.43400      129.31100      133.72700
N         95.64600      128.03600      132.33800
N         95.47800      134.25200      134.94500
C         94.82300      135.17700      135.86800
C         93.58300      135.79500      135.23200
O         92.51600      135.88900      135.85600
C         95.80900      136.26400      136.29500
C         95.23600      137.28300      137.25800
C         96.31200      137.99800      138.05200
O         97.38600      137.40300      138.26900
O         96.08800      139.15600      138.46000
N         93.70900      136.22700      133.97900
C         92.53300      136.72500      133.27500
C         91.48500      135.63900      133.07300
O         90.28500      135.92800      133.14600
C         92.93600      137.32800      131.93300
C         93.07900      138.82900      131.99900
O         93.02300      139.42000      133.07600
N         93.27300      139.45600      130.84800
N         91.91400      134.40000      132.82000
C         90.96800      133.28900      132.75300
C         90.20100      133.14600      134.06200
O         88.99300      132.87400      134.06700
C         91.71200      131.99800      132.42700
C         90.91300      130.86000      131.79900
C         91.83800      129.98700      130.98200
C         90.21700      130.04000      132.86400
N         90.89900      133.30800      135.18200
C         90.24900      133.26800      136.48400
C         89.21200      134.37400      136.60800
O         88.10200      134.14300      137.09900
C         91.29800      133.38500      137.58900
C         90.73600      133.75100      138.94300
C         91.62300      134.75500      139.65500
C         92.90600      134.11000      140.14300
N         93.59000      134.94500      141.17000
N         89.56400      135.58800      136.17900
C         88.59800      136.68400      136.21200
C         87.36000      136.34900      135.38800
O         86.22500      136.63900      135.79500
C         89.24300      137.97000      135.70300
C         88.35700      139.19200      135.83400
C         88.03900      139.48000      137.28800
C         89.30800      139.72600      138.08600
N         90.03500      140.93400      137.61000
N         87.56700      135.73900      134.22100
C         86.44600      135.30600      133.39300
C         85.55700      134.31700      134.13200
O         84.32600      134.45200      134.13400
C         86.96100      134.67900      132.10200
C         85.99000      133.67600      131.52100
O         85.17500      134.06900      130.66100
O         86.04300      132.49300      131.91800
N         86.16200      133.29200      134.73400
C         85.37400      132.29700      135.45300
C         84.62700      132.92800      136.62000
O         83.51600      132.50500      136.95800
C         86.27400      131.16300      135.93000
C         86.41900      130.02200      134.92600
C         87.55800      129.10700      135.32000
C         85.12400      129.24600      134.82400
N         85.21300      133.95600      137.23500
C         84.53800      134.65900      138.32300
C         83.29300      135.36900      137.80500
O         82.21600      135.29800      138.41200
C         85.50300      135.64100      139.00900
C         84.73900      136.60000      139.90500
C         86.53300      134.88100      139.81100
N         83.42900      136.08600      136.68500
C         82.25100      136.69200      136.06600
C         81.18600      135.64200      135.78300
O         79.99600      135.85900      136.05100
C         82.63500      137.41600      134.77200
C         81.54500      138.33900      134.20200
C         80.54400      137.57600      133.33500
N         79.63500      138.44400      132.59300
C         78.59200      138.00200      131.89400
N         78.32100      136.70500      131.85400
N         77.81200      138.85400      131.24300
N         81.59800      134.50600      135.21700
C         80.64300      133.46300      134.86300
C         79.90900      132.95500      136.09100
O         78.68500      132.78100      136.06900
C         81.35900      132.31400      134.16200
C         80.41900      131.30700      133.54100
C         80.59700      129.93800      134.16000
N         79.89300      128.90700      133.40400
C         80.41400      128.24800      132.37400
N         81.64800      128.51200      131.97100
N         79.70100      127.32600      131.74500
N         80.64000      132.73400      137.18200
C         80.02000      132.22500      138.39900
C         79.05800      133.25300      138.97800
O         77.96700      132.90600      139.44000
C         81.10500      131.81400      139.41100
C         81.58000      130.39100      139.11700
C         80.59400      131.93100      140.83400
C         80.50200      129.34800      139.25100
N         79.42900      134.53500      138.94200
C         78.55800      135.56200      139.51100
C         77.26000      135.69400      138.71900
O         76.16700      135.80100      139.29900
C         79.29700      136.89700      139.56500
C         78.60700      137.95100      140.40800
C         79.61300      138.78800      141.17900
C         80.51600      137.91600      142.03200
N         81.52300      138.72600      142.76600
N         77.35700      135.68600      137.38900
C         76.14300      135.73500      136.58200
C         75.31500      134.46900      136.76300
O         74.07900      134.51800      136.72600
C         76.49300      135.96200      135.11300
C         76.93000      137.38700      134.80800
S         75.84400      138.61900      135.55500
C         76.81300      140.10900      135.35000
N         75.97500      133.32800      136.97600
C         75.25200      132.11100      137.32500
C         74.48200      132.28700      138.62600
O         73.34300      131.82000      138.75600
C         76.23200      130.94800      137.43700
C         76.31400      130.03100      136.22300
C         77.54200      129.15100      136.33100
C         75.05500      129.19200      136.10800
N         75.10000      132.94600      139.60700
C         74.41800      133.22200      140.86700
C         73.16200      134.04500      140.62900
O         72.08800      133.72800      141.15300
C         75.35300      133.95400      141.83400
C         76.62900      133.21000      142.19800
C         76.40600      132.09000      143.19600
O         76.49500      132.35400      144.41300
O         76.15600      130.94500      142.76500
N         73.28600      135.11900      139.84700
C         72.11500      135.94700      139.55900
C         71.02000      135.13700      138.87600
O         69.84300      135.22300      139.25000
C         72.50200      137.14200      138.68900
C         71.33900      138.05400      138.35100
C         70.89700      139.01500      139.25300
C         70.68100      137.95200      137.12900
C         69.83600      139.85100      138.94600
C         69.61800      138.78500      136.81400
C         69.20000      139.73000      137.72600
O         68.14500      140.55900      137.41800
N         71.39400      134.34500      137.87000
C         70.41800      133.53700      137.14700
C         69.68700      132.58500      138.08200
O         68.45500      132.47100      138.03900
C         71.11100      132.75700      136.03200
N         70.43300      131.88400      138.93400
C         69.80100      130.89700      139.79700
C         68.94300      131.55900      140.86000
O         67.89500      131.02700      141.23500
C         70.85100      129.99700      140.43600
C         70.87000      128.64300      139.74500
C         69.59000      127.90700      140.08700
C         71.00500      128.84700      138.24900
N         69.36100      132.72600      141.35100
C         68.52200      133.46300      142.28700
C         67.20500      133.86100      141.63500
O         66.13300      133.73600      142.24400
C         69.26700      134.69700      142.79100
C         69.82200      134.56500      144.19100
C         70.55500      135.83200      144.58600
C         69.64400      137.04500      144.47900
N         70.40800      138.32300      144.47000
N         67.26500      134.32800      140.38500
C         66.03900      134.69200      139.68400
C         65.14300      133.47800      139.47500
O         63.92200      133.56500      139.65000
C         66.37100      135.34900      138.34600
C         67.16900      136.63800      138.45400
C         66.43700      137.73300      139.20300
O         66.35100      137.71600      140.43100
N         65.91100      138.70100      138.46400
N         65.72900      132.33500      139.11200
C         64.91400      131.14300      138.89600
C         64.29700      130.65300      140.19900
O         63.14800      130.19300      140.21800
C         65.73800      130.03100      138.25300
C         64.87600      129.00700      137.53300
C         65.48900      127.62400      137.51800
O         65.87000      127.12900      138.59700
O         65.57900      127.02400      136.42800
N         65.04500      130.73800      141.30000
C         64.49100      130.36400      142.59400
C         63.33200      131.27000      142.97000
O         62.30200      130.79700      143.45900
C         65.57600      130.40900      143.66800
C         66.65700      129.35200      143.51600
C         66.07900      127.95200      143.47600
N         65.87300      127.47400      142.11200
C         64.70100      127.06400      141.63900
N         63.63300      127.07400      142.42200
N         64.59500      126.64200      140.38800
N         63.47700      132.57700      142.74400
C         62.37800      133.49100      143.03600
C         61.16000      133.17800      142.17700
O         60.02000      133.20700      142.66100
C         62.82700      134.93700      142.83000
N         61.38400      132.86200      140.89900
C         60.27300      132.54000      140.01000
C         59.54600      131.28400      140.46900
O         58.31100      131.25000      140.49900
C         60.77900      132.37300      138.57900
N         60.29400      130.24100      140.83200
C         59.65700      129.01400      141.29800
C         58.97500      129.22200      142.64300
O         57.96400      128.57500      142.94100
C         60.68100      127.88600      141.38600
N         59.51300      130.12000      143.47100
C         58.90300      130.38400      144.76900
C         57.59500      131.14500      144.61600
O         56.65800      130.94900      145.39900
C         59.87400      131.15800      145.66000
N         57.51500      132.02800      143.61700
C         56.27000      132.74900      143.37500
C         55.12800      131.78700      143.07500
O         53.98100      132.03300      143.46400
C         56.45100      133.74400      142.23000
N         55.42200      130.68400      142.39400
C         54.41000      129.68100      142.08200
C         54.48000      128.51300      143.05800
O         54.51100      127.35300      142.64700
C         54.57400      129.18500      140.65600
N        156.10000      144.73000      122.05000
C        154.84000      145.08700      122.68800
C        154.71100      144.43700      124.05300
O        154.18100      145.03100      124.98700
C        153.65500      144.66700      121.82100
C        153.55300      145.38200      120.49400
C        152.33600      144.94600      119.70300
O        151.70600      143.93500      120.01700
N        151.99500      145.71000      118.67200
N        155.20200      143.20900      124.15900
C        154.95300      142.37400      125.31900
C        156.14600      142.38900      126.26500
O        157.11400      143.12800      126.08700
C        154.63000      140.94900      124.88100
C        153.26900      140.81400      124.25500
C        152.35100      141.84500      124.32600
C        152.90300      139.66000      123.59500
C        151.11100      141.72800      123.75700
C        151.66300      139.53400      123.02400
C        150.77200      140.57100      123.10700
O        149.53100      140.44700      122.53600
N        156.06000      141.54800      127.29000
C        157.09900      141.38900      128.29400
C        156.74700      140.17500      129.13500
O        155.56800      139.91500      129.37600
C        157.22200      142.63600      129.17600
O        157.98800      142.32100      130.34000
C        155.86000      143.12100      129.60400
N        157.76600      139.43500      129.56900
C        157.51400      138.17900      130.27700
C        156.66700      138.37900      131.52500
O        155.63800      137.69300      131.66000
C        158.84700      137.46600      130.57700
C        159.40600      136.85500      129.30600
C        158.63500      136.39500      131.61300
C        158.56000      135.75500      128.75100
N        157.01900      139.26200      132.46400
C        156.11700      139.48300      133.60100
C        154.71400      139.84900      133.17000
O        153.74400      139.42400      133.80600
C        156.79600      140.62500      134.36700
C        157.70200      141.24800      133.38700
C        158.19900      140.13000      132.55900
N        154.58100      140.62300      132.09700
C        153.26100      140.88800      131.56000
C        152.51900      139.61400      131.22700
O        151.35800      139.44500      131.59700
N        153.19300      138.68900      130.55400
C        152.55400      137.44700      130.14500
C        152.11900      136.64300      131.36000
O        150.99100      136.13700      131.42100
C        153.50600      136.63600      129.25500
C        154.06900      137.51800      128.14200
C        152.80300      135.42400      128.71300
C        153.02400      138.29600      127.38800
N        153.01100      136.50100      132.33700
C        152.68700      135.70300      133.51400
C        151.52200      136.31300      134.27900
O        150.57500      135.61400      134.67200
C        153.91700      135.58300      134.40600
C        155.20300      135.26800      133.65300
C        156.37400      135.15700      134.60000
C        155.03300      133.98700      132.87500
N        151.57900      137.62300      134.50600
C        150.50900      138.29700      135.21800
C        149.19200      138.14000      134.48300
O        148.15100      137.89200      135.09700
C        150.85600      139.76700      135.38400
C        150.56400      140.29700      136.74000
N        151.05400      139.70400      137.88000
C        149.84900      141.37100      137.14600
C        150.65000      140.38900      138.93400
N        149.91700      141.40500      138.51700
N        149.21700      138.28300      133.16100
C        147.98300      138.19300      132.40100
C        147.39200      136.79500      132.47800
O        146.17600      136.63800      132.61300
C        148.24100      138.58300      130.95600
C        147.01000      138.53700      130.10800
C        146.12000      139.58900      130.10700
C        146.73800      137.44600      129.30800
C        144.99400      139.55900      129.33500
C        145.61500      137.40600      128.52700
C        144.74400      138.46800      128.54500
O        143.61000      138.44400      127.77100
N        148.23300      135.76500      132.38400
C        147.73600      134.39900      132.51400
C        147.06300      134.21200      133.86100
O        145.94200      133.69000      133.95700
C        148.88200      133.39600      132.32500
C        149.26600      133.31200      130.85200
C        148.50200      132.05100      132.89000
C        149.82700      131.97400      130.45200
N        147.74200      134.63400      134.92500
C        147.18300      134.46900      136.25900
C        145.85000      135.19100      136.38400
O        144.87100      134.64200      136.91200
C        148.17500      134.98400      137.29100
C        147.75400      134.74400      138.71200
C        148.21600      133.40500      139.23000
O        148.12800      132.39200      138.53700
N        148.72700      133.39400      140.45300
N        145.79200      136.42900      135.89600
C        144.57300      137.21100      136.02400
C        143.44700      136.60800      135.21600
O        142.29100      136.67300      135.62400
C        144.79800      138.64200      135.57300
C        143.61800      139.23200      134.87300
N        142.57900      139.83200      135.54700
C        143.30700      139.30600      133.55800
C        141.68200      140.25900      134.67700
N        142.10000      139.95200      133.46200
N        143.75400      136.03900      134.05500
C        142.70700      135.41200      133.26000
C        142.15300      134.18300      133.95700
O        140.94400      133.92600      133.91700
C        143.24100      135.04500      131.88500
C        143.01100      136.11000      130.86000
C        141.56800      136.19800      130.46300
O        140.80800      135.27600      130.81300
O        141.19300      137.18200      129.79700
N        143.01900      133.41400      134.61300
C        142.52100      132.28000      135.38300
C        141.60400      132.74300      136.50900
O        140.49100      132.22100      136.67900
C        143.69000      131.47000      135.92800
C        143.91000      130.20100      135.19600
C        143.97300      128.95500      135.73100
C        144.09100      130.04300      133.78700
N        144.18400      128.02800      134.74500
C        144.26000      128.67400      133.54100
C        144.12700      130.92600      132.71100
C        144.45700      128.16800      132.26800
C        144.32300      130.42100      131.45100
C        144.48700      129.05900      131.23900
N        142.04600      133.73400      137.28000
C        141.19700      134.25100      138.34900
C        139.90200      134.83100      137.79400
O        138.84000      134.71600      138.41800
C        141.95100      135.30300      139.15800
N        139.97400      135.47100      136.62900
C        138.78400      136.02500      136.00600
C        137.79400      134.93000      135.68000
O        136.59200      135.07800      135.92000
C        139.16100      136.78200      134.74000
C        138.49400      138.11900      134.60100
C        137.26100      138.00300      133.75000
N        137.56500      137.59500      132.38600
C        138.11800      138.38200      131.47200
N        138.44000      139.63100      131.77200
N        138.35000      137.91700      130.25500
N        138.27500      133.82200      135.12600
C        137.36000      132.72900      134.84500
C        136.75400      132.18600      136.12300
O        135.58600      131.78600      136.14300
C        138.05100      131.60400      134.10100
C        137.13700      130.46800      133.79800
C        136.32900      130.50200      132.67800
C        137.04500      129.38800      134.65400
C        135.47300      129.46800      132.40100
C        136.19000      128.35100      134.38300
C        135.40200      128.39000      133.25500
N        137.52800      132.15200      137.20200
C        136.96400      131.62100      138.43700
C        135.86100      132.52500      138.97600
O        134.79800      132.04800      139.40500
C        138.05300      131.42500      139.47700
C        137.73400      130.28200      140.38300
C        137.08200      129.14900      139.62400
O        135.88400      128.88700      139.85600
O        137.76700      128.52600      138.78800
N        136.09000      133.83600      138.95800
C        135.04900      134.76200      139.39000
C        133.83100      134.68500      138.48200
O        132.69300      134.79600      138.95200
C        135.59200      136.18500      139.43500
C        136.51100      136.44800      140.60600
S        135.98700      135.56200      142.08000
C        137.55700      135.31000      142.90300
N        134.04700      134.49900      137.17900
C        132.92400      134.35100      136.26100
C        132.12100      133.10400      136.58200
O        130.88800      133.11300      136.51000
C        133.42400      134.30700      134.82200
C        133.95700      135.62100      134.31700
C        133.03900      136.77300      134.63500
O        131.90800      136.79300      134.10900
O        133.44300      137.65700      135.41400
N        132.80200      132.02200      136.94800
C        132.09500      130.81000      137.33200
C        131.24600      131.03800      138.57100
O        130.08200      130.62300      138.62100
C        133.08300      129.68100      137.57400
C        132.58100      128.66900      138.56300
C        132.18600      127.40700      137.85000
N        133.27900      126.91700      137.02400
C        134.34100      126.28100      137.50200
N        134.44900      126.05500      138.80300
N        135.29500      125.87000      136.68100
N        131.81200      131.68800      139.58500
C        131.03100      131.96100      140.78800
C        129.81000      132.81700      140.47200
O        128.68600      132.50400      140.90000
C        131.90400      132.64300      141.83500
N        130.01300      133.91000      139.73700
C        128.89700      134.77100      139.37100
C        127.82500      133.99400      138.63300
O        126.63400      134.14100      138.92200
C        129.38300      135.93200      138.51300
C        130.15800      136.95900      139.27300
N        130.24800      136.95600      140.64700
C        130.88500      138.01900      138.85000
C        130.99400      137.97400      141.03900
N        131.39300      138.63400      139.96700
N        128.22200      133.16100      137.67300
C        127.21600      132.43300      136.91800
C        126.48400      131.43500      137.79400
O        125.29000      131.20000      137.60200
C        127.82900      131.70600      135.73400
C        126.88500      130.68700      135.21900
C        127.02100      129.33700      135.28400
C        125.62100      130.93500      134.59900
N        125.93100      128.72500      134.72000
C        125.05500      129.68700      134.29300
C        124.92000      132.09300      134.26200
C        123.82400      129.56400      133.66400
C        123.70000      131.96800      133.64300
C        123.16400      130.71500      133.34700
N        127.17800      130.81900      138.74800
C        126.48800      129.90300      139.64600
C        125.41500      130.63100      140.43800
O        124.29100      130.13300      140.58800
C        127.48300      129.23100      140.58200
C        128.13400      128.01200      139.98000
C        127.14900      127.15900      139.21300
O        127.14200      127.23100      137.96700
O        126.37700      126.41800      139.85400
N        125.73700      131.82200      140.93600
C        124.73500      132.58800      141.67100
C        123.56900      132.95500      140.76000
O        122.39700      132.84500      141.14700
C        125.37400      133.83200      142.30700
C        124.30300      134.74000      142.86200
C        126.33600      133.42000      143.39800
N        123.87100      133.39700      139.54000
C        122.81000      133.74400      138.60300
C        121.91600      132.54800      138.32000
O        120.69300      132.68800      138.21800
C        123.40300      134.26900      137.29900
C        124.25100      135.51300      137.44200
C        123.52900      136.63400      138.14500
O        122.59400      137.20000      137.54600
O        123.89200      136.94900      139.29700
N        122.51000      131.36600      138.17900
C        121.72000      130.17300      137.91800
C        120.82400      129.85100      139.09900
O        119.66600      129.46300      138.92000
C        122.62800      128.99000      137.61400
C        121.98100      127.66200      137.91900
C        122.98200      126.54500      137.86200
N        123.81300      126.65800      136.67400
C        123.42300      126.28600      135.46300
N        122.21300      125.77700      135.28700
N        124.24000      126.42100      134.42900
N        121.34600      129.99300      140.31200
C        120.52100      129.78800      141.49300
C        119.30900      130.70400      141.43600
O        118.17200      130.26000      141.62200
C        121.32300      130.04400      142.76600
N        119.55100      131.98300      141.15700
C        118.46100      132.95300      141.11600
C        117.42300      132.58300      140.06600
O        116.21100      132.63900      140.31600
C        119.01800      134.34300      140.83800
C        117.96300      135.34800      140.47900
C        117.15800      135.76400      141.68100
O        117.67800      135.64500      142.81200
O        116.00600      136.21100      141.49800
N        117.88300      132.22200      138.87200
C        116.95000      131.92600      137.79400
C        116.14700      130.66800      138.09100
O        114.93900      130.63000      137.84400
C        117.69800      131.79800      136.47200
C        118.37100      133.08700      136.00700
C        118.63900      133.03300      134.52400
C        117.52700      134.29600      136.34800
N        116.79400      129.63600      138.63100
C        116.06100      128.44500      139.04500
C        115.03400      128.78100      140.11500
O        113.93800      128.20600      140.14200
C        117.03100      127.39000      139.56100
C        117.96400      126.84900      138.51500
C        117.41500      125.62000      137.84800
O        116.30300      125.18900      138.14100
N        118.19200      125.03900      136.94600
N        115.37400      129.70700      141.01000
C        114.43800      130.09900      142.05500
C        113.19500      130.73800      141.45700
O        112.06600      130.35000      141.77800
C        115.11700      131.05200      143.03300
N        113.38700      131.72800      140.58700
C        112.24000      132.34800      139.93300
C        111.44600      131.32300      139.14200
O        110.21000      131.37700      139.10000
C        112.69800      133.47600      139.02200
C        113.22600      134.67400      139.75600
C        114.08300      135.52800      138.85100
N        114.67200      136.64800      139.57000
C        114.38900      137.91900      139.32100
N        113.52700      138.23000      138.36600
N        114.97000      138.87900      140.02400
N        112.13800      130.37500      138.51600
C        111.45800      129.36000      137.72300
C        110.51900      128.54800      138.59600
O        109.32500      128.43100      138.30800
C        112.48100      128.45600      137.01800
C        113.04900      129.16800      135.79900
C        111.82800      127.15700      136.60200
C        111.99200      129.63400      134.86200
N        111.04600      127.96600      139.67200
C        110.20000      127.14200      140.52700
C        109.11500      127.96900      141.19700
O        108.02300      127.45700      141.46100
C        111.04200      126.42000      141.57500
N        109.38900      129.24300      141.46900
C        108.36400      130.11900      142.02000
C        107.18400      130.23000      141.06800
O        106.02500      130.03100      141.45800
C        108.97600      131.48800      142.29900
C        107.99400      132.52000      142.73100
C        107.34800      133.30800      141.80400
C        107.74200      132.72600      144.06800
C        106.45600      134.26200      142.20200
C        106.85100      133.67900      144.47100
C        106.20600      134.45000      143.53800
N        107.46500      130.55800      139.80900
C        106.39800      130.63300      138.82200
C        105.72400      129.28200      138.63900
O        104.51400      129.21300      138.40700
C        106.94500      131.14900      137.49400
C        107.36800      132.61400      137.49500
C        107.41400      133.13600      136.07800
C        106.41500      133.43200      138.33400
N        106.48800      128.19700      138.74700
C        105.90200      126.86600      138.62800
C        104.87300      126.63000      139.72200
O        103.76700      126.14300      139.46200
C        106.99600      125.80300      138.68800
C        107.90500      125.77800      137.47800
C        107.35400      124.92500      136.36100
O        107.79300      125.01900      135.21600
N        106.38400      124.08200      136.68900
N        105.22500      126.97500      140.95800
C        104.29000      126.80200      142.05400
C        103.06300      127.67800      141.90800
O        101.94100      127.24000      142.17600
N        103.25700      128.92900      141.48900
C        102.10800      129.80500      141.28900
C        101.18300      129.25400      140.21400
O         99.95500      129.25500      140.37400
C        102.57600      131.21000      140.92700
C        103.31500      131.90600      142.04600
C        102.39500      132.37700      143.14600
O        101.19000      132.54900      142.87700
O        102.87500      132.57300      144.27900
N        101.75700      128.76600      139.11400
C        100.94800      128.19800      138.04400
C        100.21400      126.95300      138.51700
O         99.05500      126.72900      138.15200
C        101.83300      127.88300      136.84200
C        101.13000      127.12600      135.75000
C        100.17000      128.02300      134.99600
N         98.92700      127.33400      134.67200
C         98.81200      126.38500      133.74800
N         99.86900      126.00600      133.04500
N         97.63500      125.81600      133.52600
N        100.86500      126.13800      139.34800
C        100.20600      124.95000      139.87800
C         99.04300      125.32400      140.79000
O         97.98100      124.68800      140.75400
C        101.22100      124.09000      140.62300
C        100.74600      122.69200      140.93900
C        101.81500      121.94000      141.70300
C        101.35200      120.55000      142.07500
N        102.32900      119.88200      142.97500
N         99.22600      126.35300      141.61600
C         98.13000      126.80600      142.45600
C         96.95700      127.31100      141.64100
O         95.79500      127.02400      141.94800
N         97.24700      128.07800      140.59100
C         96.18600      128.51000      139.69000
C         95.47500      127.31700      139.07200
O         94.24600      127.31600      138.93500
C         96.75400      129.40400      138.59500
C         97.14900      130.77400      139.06800
C         97.74800      131.59800      137.95800
O         98.33000      131.06000      137.01700
N         97.60200      132.91200      138.05300
N         96.23800      126.29600      138.67800
C         95.63700      125.09400      138.11500
C         94.66400      124.45800      139.09500
O         93.55400      124.06400      138.71700
C         96.72900      124.10000      137.72700
C         96.25300      122.66700      137.56500
C         96.26500      121.88900      138.87100
O         95.60200      120.83500      138.94800
O         96.92200      122.34600      139.82700
N         95.07400      124.32800      140.35500
C         94.20000      123.69300      141.33600
C         92.94800      124.52500      141.57800
O         91.84700      123.97700      141.70700
C         94.95000      123.45700      142.64100
C         95.29900      122.00300      142.84600
O         95.06000      121.16900      141.97200
N         95.86600      121.68600      144.00300
N         93.09600      125.84800      141.63700
C         91.92500      126.70400      141.78800
C         90.96900      126.53400      140.61700
O         89.74600      126.49100      140.80000
C         92.35300      128.16100      141.91500
C         91.24200      129.19200      141.75200
C         90.17600      129.00700      142.81200
C         91.81100      130.59100      141.81200
N         91.50800      126.44100      139.40300
C         90.65200      126.25600      138.23700
C         89.92400      124.92200      138.30200
O         88.73100      124.84300      137.98500
C         91.47900      126.36000      136.95800
C         90.65500      126.29800      135.68600
C         91.48900      126.66300      134.47000
C         90.68100      126.53800      133.19000
N         91.46000      126.96900      132.00200
N         90.63000      123.86000      138.69500
C         89.97600      122.56800      138.88000
C         88.83800      122.67400      139.88600
O         87.74800      122.12600      139.67300
C         90.99800      121.52400      139.33100
C         90.43600      120.45500      140.25400
C         89.66100      119.40300      139.48600
C         90.59400      118.39900      138.84000
N         91.36400      117.63300      139.85700
N         89.07700      123.38000      140.99000
C         88.02600      123.59300      141.97700
C         86.81900      124.27900      141.35000
O         85.67400      123.84600      141.53300
C         88.57500      124.41600      143.14300
C         87.48300      124.96400      144.04000
O         87.18400      124.32800      145.07300
O         86.92900      126.03500      143.71500
N         87.05900      125.35900      140.60500
C         85.95100      126.12800      140.05000
C         85.16300      125.31100      139.03900
O         83.93200      125.41500      138.96700
C         86.47400      127.40900      139.41300
C         87.02400      128.40700      140.42300
C         87.11800      129.78500      139.81300
C         86.14700      128.42900      141.65500
N         85.84700      124.47800      138.25700
C         85.12600      123.68900      137.26600
C         84.35100      122.56700      137.94000
O         83.26900      122.18800      137.48100
C         86.07200      123.16300      136.17100
C         86.87600      124.30400      135.56900
C         86.98300      122.07800      136.70900
N         84.87000      122.02900      139.04700
C         84.06600      121.09600      139.82900
C         82.81000      121.77900      140.34900
O         81.71300      121.20500      140.31500
C         84.88400      120.53200      140.98800
C         84.07600      119.67000      141.94200
C         83.53400      118.44400      141.23900
N         84.60000      117.73500      140.53700
C         85.31400      116.75000      141.07000
N         85.07400      116.35200      142.31100
N         86.26800      116.16400      140.36200
N         82.96400      123.01000      140.83700
C         81.81900      123.79800      141.27700
C         80.77900      123.92100      140.17500
O         79.58900      123.68000      140.40200
C         82.28400      125.18400      141.71800
C         81.21700      126.25700      141.62800
C         80.20000      126.10900      142.73800
N         79.62200      127.39300      143.11500
C         78.61900      127.53300      143.97300
N         78.15000      128.73800      144.26000
N         78.08600      126.46400      144.54700
N         81.21100      124.30300      138.97500
C         80.25700      124.53900      137.89500
C         79.61000      123.23200      137.45500
O         78.41300      123.19100      137.15400
C         80.93900      125.26800      136.72600
C         81.56800      126.56400      137.22500
C         79.93200      125.57900      135.64100
C         82.22800      127.36900      136.14800
N         80.38300      122.14400      137.41300
C         79.80900      120.84500      137.07800
C         78.71100      120.46200      138.05900
O         77.62300      120.02800      137.65300
C         80.89900      119.77500      137.05900
C         80.40000      118.40100      136.65100
C         80.96700      117.31200      137.54600
C         82.48600      117.27800      137.50100
N         83.03400      116.03900      138.12500
N         78.97600      120.61700      139.35700
C         77.96300      120.29100      140.35400
C         76.74800      121.20100      140.22100
O         75.60300      120.74600      140.32700
C         78.56300      120.37700      141.75700
C         79.72800      119.42900      141.99300
S         79.21400      117.70300      142.00700
C         80.57200      116.95900      142.90300
N         76.97900      122.49400      139.98200
C         75.86700      123.42900      139.84200
C         74.98600      123.06300      138.65600
O         73.75400      123.12900      138.74200
C         76.39700      124.85600      139.70300
C         75.35700      125.97400      139.71000
C         74.35200      125.73300      140.80700
C         76.02900      127.31500      139.90800
N         75.59400      122.64800      137.54500
C         74.80700      122.31200      136.36400
C         74.07100      120.99200      136.55000
O         72.94000      120.83100      136.07700
C         75.69600      122.27700      135.12100
C         76.49200      123.55800      134.88200
C         75.79800      124.80200      135.41400
O         74.74400      125.19000      134.86600
O         76.29900      125.38500      136.39600
N         74.69000      120.02700      137.23500
C         73.94700      118.81000      137.55500
C         72.75000      119.12400      138.43900
O         71.67000      118.54800      138.26600
C         74.83900      117.77200      138.23300
C         74.04600      116.59800      138.78000
C         73.44400      115.68300      137.92400
C         73.89100      116.41100      140.14800
C         72.71600      114.61400      138.41600
C         73.16500      115.34300      140.64800
C         72.58100      114.45000      139.77700
O         71.86000      113.38900      140.27000
N         72.92800      120.02700      139.40500
C         71.81200      120.43100      140.25200
C         70.73300      121.12700      139.43800
O         69.53700      120.96500      139.70400
C         72.31100      121.34100      141.37100
N         71.14300      121.91300      138.44400
C         70.17800      122.57000      137.57200
C         69.42600      121.56800      136.71000
O         68.26600      121.79800      136.34700
C         70.88700      123.60600      136.70800
C         71.14800      124.87400      137.50000
C         72.35300      125.62600      136.97900
C         69.89400      125.69600      137.39300
N         70.07300      120.45400      136.36300
C         69.40500      119.43400      135.56200
C         68.13300      118.94400      136.24200
O         67.14800      118.61600      135.57100
C         70.35500      118.26900      135.29500
N         68.13100      118.89200      137.56800
C         66.93100      118.52700      138.30500
C         66.29900      119.76900      138.91800
O         66.62500      120.89200      138.53300
C         67.25100      117.50600      139.37500
N        149.82000      116.61600      136.52200
C        150.11400      117.45500      137.67700
C        150.50100      118.87100      137.25700
O        151.34900      119.50900      137.88000
C        151.22500      116.82600      138.52300
C        152.57100      116.68800      137.81800
C        152.67900      115.41300      137.00500
O        151.69500      114.69700      136.82000
N        153.87800      115.12500      136.51300
N        149.86200      119.36500      136.20300
C        150.17900      120.69100      135.69400
C        149.44400      121.76200      136.48900
O        148.21500      121.77000      136.58100
C        149.82100      120.79300      134.21200
C        150.67700      119.92200      133.32700
C        151.56100      120.48100      132.41700
C        150.60600      118.53800      133.40700
C        152.34800      119.68900      131.61200
C        151.38900      117.73700      132.61000
C        152.25800      118.31700      131.71300
O        153.03900      117.51500      130.91400
N        150.21300      122.67700      137.06200
C        149.67100      123.72200      137.91200
C        150.20600      125.06200      137.44900
O        151.41800      125.23400      137.29100
C        150.04000      123.49600      139.37500
O        150.10900      122.09000      139.63500
C        148.99200      124.11700      140.28000
N        149.29300      126.00900      137.23300
C        149.68400      127.29600      136.65800
C        150.81700      127.95200      137.43200
O        151.70600      128.53500      136.79800
C        148.45500      128.19600      136.48900
C        147.95800      128.13900      135.04700
C        148.78000      129.62500      136.85100
C        147.89400      126.75600      134.46800
N        150.87500      127.89900      138.76800
C        152.09200      128.38600      139.43800
C        153.34400      127.67500      138.96200
O        154.36900      128.32300      138.71300
C        151.79800      128.12300      140.91700
C        150.34200      128.21600      141.01300
C        149.80900      127.61600      139.74200
N        153.28500      126.35200      138.82100
C        154.43000      125.63100      138.29800
C        154.79100      126.07800      136.89800
O        155.96300      126.31200      136.59300
N        153.78700      126.23200      136.03700
C        154.04400      126.62600      134.65800
C        154.66900      128.00800      134.60400
O        155.58200      128.26300      133.81300
C        152.74500      126.56900      133.84400
C        152.28300      125.12800      133.71200
C        152.95600      127.17200      132.48500
C        150.90700      125.00400      133.14000
N        154.19700      128.92200      135.44500
C        154.71900      130.27800      135.40000
C        156.12900      130.34200      135.95900
O        156.99100      131.04100      135.41000
C        153.79300      131.21800      136.15500
C        152.43200      131.33100      135.48500
C        151.69800      132.53500      136.02200
C        152.59100      131.41900      133.98400
N        156.39000      129.62200      137.05200
C        157.76100      129.52800      137.53600
C        158.67000      128.97300      136.45500
O        159.79100      129.45800      136.26100
C        157.83100      128.65400      138.78300
C        159.21500      128.51800      139.33600
N        159.79900      129.48700      140.12400
C        160.13700      127.53700      139.20100
C        161.01700      129.10300      140.46000
N        161.24800      127.92400      139.91200
N        158.18800      127.97400      135.71800
C        159.00200      127.37100      134.67600
C        159.27600      128.35500      133.55000
O        160.41600      128.48300      133.09800
C        158.30900      126.11800      134.15800
C        158.75900      125.64800      132.80300
C        158.08500      126.03100      131.66000
C        159.83700      124.79500      132.66800
C        158.47900      125.59300      130.42600
C        160.24100      124.35400      131.43300
C        159.55500      124.75500      130.31500
O        159.94800      124.31900      129.07400
N        158.24600      129.06000      133.08300
C        158.44600      130.03700      132.01600
C        159.45300      131.08900      132.44400
O        160.38800      131.41900      131.70100
C        157.11500      130.69500      131.62100
C        156.13700      129.66200      131.08300
C        157.35600      131.76200      130.58300
C        154.73100      130.18800      130.97200
N        159.26500      131.64600      133.64100
C        160.17400      132.67000      134.13400
C        161.60100      132.15000      134.18200
O        162.52500      132.77400      133.64200
C        159.72300      133.13600      135.51400
C        160.40800      134.39600      135.98500
C        159.94500      134.83300      137.35700
O        159.48300      134.02200      138.15900
N        160.06700      136.12400      137.63600
N        161.79900      130.98900      134.80600
C        163.15200      130.48400      134.98000
C        163.79300      130.14200      133.64300
O        164.99900      130.33400      133.46300
C        163.14200      129.27800      135.91600
C        163.47100      129.62400      137.33500
N        163.79300      128.67600      138.28100
C        163.54100      130.82200      137.96400
C        164.04100      129.27400      139.43400
N        163.89400      130.57600      139.26800
N        163.00700      129.67500      132.67600
C        163.61700      129.27700      131.41500
C        163.95500      130.48400      130.55900
O        164.99000      130.49800      129.88500
C        162.71500      128.30600      130.66800
C        162.50200      127.01900      131.42900
C        163.59200      126.75600      132.45300
O        163.36400      127.01900      133.65300
O        164.67500      126.27800      132.05600
N        163.11600      131.51600      130.57900
C        163.53000      132.75300      129.93400
C        164.79400      133.29400      130.57700
O        165.70300      133.77000      129.88400
C        162.41800      133.78900      129.99600
C        161.89000      134.11900      128.66800
C        161.98500      135.30800      128.02400
C        161.18400      133.24200      127.79500
N        161.37000      135.23400      126.80300
C        160.87100      133.97000      126.63900
C        160.78300      131.90800      127.88100
C        160.17800      133.41100      125.57700
C        160.09900      131.35700      126.82600
C        159.80300      132.10500      125.68900
N        164.88300      133.20300      131.90400
C        166.07000      133.70300      132.58400
C        167.31200      132.92600      132.17200
O        168.37800      133.51500      131.94700
C        165.87200      133.63800      134.09600
N        167.20000      131.60200      132.07100
C        168.37300      130.81500      131.71500
C        168.75000      131.03100      130.25800
O        169.93600      131.00600      129.91100
C        168.14900      129.33400      132.01500
C        167.17000      128.63500      131.11400
C        167.72900      127.31500      130.63000
N        168.52800      127.48900      129.42400
C        168.01600      127.66000      128.21000
N        166.70400      127.66900      128.03800
N        168.81300      127.81500      127.16400
N        167.76900      131.28600      129.39100
C        168.13600      131.64200      128.02900
C        168.86400      132.97300      127.99600
O        169.79500      133.15400      127.21100
C        166.92600      131.70300      127.10700
C        167.25700      132.25800      125.75100
C        167.65500      131.42100      124.72700
C        167.21200      133.62100      125.51200
C        167.97600      131.92800      123.49200
C        167.53900      134.12900      124.28300
C        167.91900      133.28400      123.27000
N        168.43500      133.93100      128.81300
C        169.14700      135.20300      128.85800
C        170.58300      135.01300      129.32900
O        171.52500      135.55800      128.73400
C        168.41000      136.18300      129.76600
C        169.15500      137.48200      130.01500
C        169.33900      138.31800      128.76200
O        168.74800      137.98200      127.71400
O        170.07700      139.32200      128.82400
N        170.76500      134.24800      130.40600
C        172.10500      133.96200      130.90700
C        172.97300      133.31600      129.83500
O        174.10900      133.74700      129.59800
C        172.00600      133.06400      132.13800
C        173.20800      132.17600      132.38600
S        172.81000      130.89600      133.59500
C        174.40900      130.14100      133.84700
N        172.45600      132.28200      129.17300
C        173.23800      131.60600      128.14700
C        173.51700      132.52700      126.96600
O        174.58900      132.45600      126.35400
C        172.51000      130.34400      127.69500
C        173.27400      129.51800      126.69000
C        172.84000      129.80300      125.27300
O        171.67500      130.20600      125.08800
O        173.65800      129.62700      124.34800
N        172.56200      133.39100      126.62700
C        172.79500      134.39200      125.59800
C        174.00000      135.24200      125.94300
O        174.88900      135.44700      125.10800
C        171.55400      135.26800      125.44800
C        171.30100      135.80500      124.05600
C        172.25100      136.92300      123.68900
N        172.68500      137.67200      124.86100
C        171.99500      138.66300      125.40900
N        170.83300      139.03100      124.88700
N        172.46800      139.28800      126.47900
N        174.03100      135.76700      127.16600
C        175.15600      136.59400      127.58600
C        176.46200      135.81400      127.51300
O        177.48800      136.33000      127.04800
C        174.91700      137.12000      129.00000
N        176.43800      134.56200      127.97600
C        177.62900      133.72300      127.89700
C        178.15400      133.65000      126.47300
O        179.32600      133.95900      126.21100
C        177.32000      132.31700      128.40500
C        177.14900      132.23100      129.88700
N        177.01200      131.03000      130.54700
C        177.08600      133.19300      130.83600
C        176.87500      131.25600      131.84100
N        176.91500      132.56000      132.04300
N        177.29800      133.23500      125.54100
C        177.75100      133.04500      124.17100
C        178.21300      134.35500      123.55700
O        179.17300      134.37800      122.78200
C        176.65100      132.42800      123.31600
C        176.79000      132.80600      121.88100
C        175.95700      133.60300      121.16600
C        177.84400      132.42200      120.99000
N        176.41600      133.73700      119.88100
C        177.57500      133.02100      119.74700
C        178.98800      131.63400      121.12300
C        178.40200      132.85300      118.64300
C        179.81000      131.47200      120.02500
C        179.51200      132.07500      118.80100
N        177.54600      135.46000      123.88500
C        177.94500      136.72600      123.28400
C        179.31800      137.15800      123.78500
O        180.13300      137.68200      123.01400
C        176.88300      137.79400      123.54900
C        176.99600      138.52900      124.86900
C        177.91000      139.73200      124.78500
O        177.99800      140.33500      123.69600
O        178.54600      140.06600      125.80600
N        179.60800      136.91700      125.06200
C        180.91600      137.25900      125.60400
C        181.97300      136.41000      124.91400
O        183.02900      136.91400      124.50100
C        180.95700      137.06400      127.12800
C        182.39100      137.01500      127.61500
C        180.19900      138.18200      127.82000
N        181.69400      135.11000      124.79200
C        182.63700      134.22000      124.12500
C        182.88900      134.66000      122.69000
O        184.02600      134.61400      122.20700
C        182.12100      132.78500      124.15900
C        182.60800      131.98400      125.34400
C        182.01500      130.59300      125.38100
O        180.87600      130.44400      125.87000
O        182.68400      129.64900      124.91500
N        181.84100      135.10100      121.99600
C        182.01100      135.54800      120.62100
C        182.84600      136.81600      120.54800
O        183.67700      136.95600      119.64400
C        180.65100      135.77100      119.96600
C        180.70100      136.63200      118.71900
C        179.42800      137.42800      118.57200
N        179.00900      137.98600      119.85200
C        179.53400      139.07800      120.39600
N        180.50100      139.73300      119.76900
N        179.09300      139.51400      121.56700
N        182.64200      137.74500      121.48000
C        183.48400      138.93700      121.52400
C        184.95100      138.55900      121.68000
O        185.82300      139.05800      120.95200
C        183.03800      139.85000      122.66600
N        185.23900      137.67000      122.63100
C        186.61800      137.24300      122.84300
C        187.18500      136.57600      121.59500
O        188.34800      136.80000      121.22900
C        186.68900      136.30500      124.04900
C        187.85900      135.34300      124.04900
C        187.55800      134.06000      123.30200
O        188.28000      133.75600      122.33300
O        186.59400      133.36500      123.67500
N        186.37500      135.76200      120.92200
C        186.86500      135.06500      119.74100
C        187.14400      136.03500      118.60300
O        188.11300      135.86200      117.85700
C        185.86500      133.99400      119.31800
C        186.13300      132.62900      119.94800
C        185.15300      131.59300      119.44300
C        187.55400      132.19200      119.65400
N        186.31800      137.06900      118.45800
C        186.58800      138.06600      117.42700
C        187.86300      138.83900      117.73500
O        188.64900      139.15000      116.82800
C        185.40100      139.01400      117.28100
C        184.10900      138.32100      116.90400
C        183.30900      139.10100      115.88600
O        183.84900      139.94700      115.17500
N        182.01300      138.82300      115.81100
N        188.09000      139.15200      119.01100
C        189.35200      139.78200      119.38700
C        190.53700      138.89800      119.01400
O        191.55000      139.38400      118.49300
C        189.36200      140.09300      120.88400
N        190.42400      137.59200      119.27000
C        191.50800      136.67900      118.92200
C        191.72500      136.60800      117.41700
O        192.87200      136.53400      116.95900
C        191.22200      135.28600      119.47400
C        191.23800      135.22100      120.98100
C        192.53500      135.77700      121.52100
N        193.68800      135.22800      120.81800
C        194.24200      134.05700      121.10600
N        193.74400      133.31200      122.08200
N        195.29100      133.62900      120.41900
N        190.64200      136.61200      116.64000
C        190.77400      136.63500      115.18700
C        191.54000      137.87100      114.74600
O        192.44400      137.79300      113.90600
C        189.39000      136.57000      114.51600
C        188.67700      135.27000      114.87100
C        189.52300      136.70200      113.00600
C        187.20900      135.29500      114.54500
N        191.18500      139.03400      115.29700
C        191.87800      140.26100      114.91800
C        193.35700      140.19300      115.28100
O        194.22100      140.61300      114.49800
C        191.21500      141.46400      115.58200
N        193.66500      139.66600      116.46800
C        195.05900      139.51600      116.87100
C        195.82500      138.62900      115.90100
O        196.94600      138.96100      115.49700
C        195.14500      138.93900      118.28100
C        196.22100      137.90400      118.44100
C        197.54800      138.27700      118.56100
C        195.90700      136.55600      118.46000
C        198.53600      137.32700      118.70100
C        196.89300      135.60400      118.59800
C        198.20800      135.98900      118.72100
N        195.25100      137.48100      115.53900
C        195.96000      136.57600      114.64500
C        196.09400      137.18000      113.25600
O        197.08100      136.92900      112.55700
C        195.26100      135.22100      114.58700
C        196.17500      134.01000      114.80500
C        197.63900      134.41200      114.90900
C        195.75400      133.21100      116.02900
N        195.12600      138.00200      112.85000
C        195.25900      138.72000      111.58800
C        196.44800      139.66800      111.62500
O        197.26000      139.69900      110.69000
C        193.97500      139.48700      111.27900
C        192.88000      138.62300      110.69500
C        193.35900      137.82100      109.50600
O        193.17000      136.60700      109.44700
N        193.98200      138.49500      108.54800
N        196.56800      140.44600      112.70200
C        197.70800      141.34100      112.82800
C        199.03200      140.60000      112.85100
O        200.00900      141.03100      112.22900
N        199.08000      139.47100      113.56200
C        200.31200      138.69200      113.63200
C        200.68800      138.12700      112.26800
O        201.85900      138.17200      111.86800
C        200.16700      137.56700      114.65700
N        199.70800      137.58700      111.53900
C        199.97700      137.08600      110.19800
C        200.46700      138.20000      109.28700
O        201.39300      137.99900      108.49200
C        198.72400      136.43300      109.61800
N        199.86200      139.38500      109.39000
C        200.29000      140.50300      108.55500
C        201.72900      140.89600      108.85900
O        202.53500      141.10100      107.94400
C        199.35000      141.69500      108.74200
C        198.24100      141.77700      107.70000
C        198.80600      141.80000      106.28700
C        199.78200      142.94800      106.09700
N        200.65500      142.74600      104.91300
N        202.07300      141.00100      110.14300
C        203.44400      141.33000      110.50000
C        204.43800      140.29500      110.01000
O        205.50900      140.63900      109.49600
N        204.09700      139.01200      110.15900
C        204.99200      137.95000      109.71100
C        205.19500      138.00500      108.20200
O        206.32600      137.90300      107.71000
C        204.44400      136.58800      110.13600
N        204.10400      138.17800      107.45100
C        204.20800      138.25100      105.99700
C        205.02800      139.46100      105.56800
O        205.82800      139.38200      104.62900
C        202.81000      138.28800      105.37600
C        202.12400      136.92500      105.30600
C        200.66100      136.97200      105.71900
O        200.01600      138.02000      105.51200
O        200.15600      135.96100      106.25200
N        204.86000      140.58900      106.26400
C        205.61200      141.79200      105.91800
C        207.10500      141.60500      106.15800
O        207.92800      141.93400      105.29200
C        205.08700      142.98200      106.71900
C        203.65400      143.32400      106.37500
O        203.23800      143.21800      105.22200
N        202.88400      143.72200      107.37900
N        207.47700      141.09000      107.33100
C        208.89700      140.89900      107.60600
C        209.50100      139.86100      106.66900
O        210.65700      139.99600      106.25100
C        209.11500      140.51200      109.07000
C        208.62600      139.16100      109.58700
C        209.75100      138.13600      109.56500
C        208.07500      139.31100      110.99200
N        208.73200      138.82900      106.30900
C        209.23500      137.84100      105.36000
C        209.44400      138.45900      103.98300
O        210.44500      138.17600      103.31200
C        208.27800      136.65200      105.28000
N        208.50900      139.30600      103.54600
C        208.67200      139.98900      102.26900
C        209.91200      140.87200      102.27600
O        210.66600      140.90300      101.29900
C        207.42500      140.81300      101.95100
N        210.14900      141.58500      103.37900
C        211.33100      142.44100      103.45600
C        212.61700      141.62000      103.43700
O        213.59100      141.98500      102.76300
C        211.26300      143.31000      104.71100
C        210.27300      144.44600      104.57500
O        209.12500      144.19100      104.15100
O        210.64400      145.59600      104.89000
N        212.63900      140.50500      104.17300
C        213.81600      139.64500      104.17800
C        214.10700      139.10200      102.78600
O        215.25600      139.13200      102.32700
C        213.62500      138.49700      105.17000
C        214.64500      137.35600      105.12400
C        215.00600      136.90700      106.52800
C        214.12000      136.18000      104.31600
N        213.08200      138.59700      102.09700
C        213.31800      138.02000      100.77800
C        213.65500      139.11300       99.77200
O        214.37000      138.87400       98.79400
C        212.11400      137.17200      100.32600
C        211.84900      136.05200      101.32500
C        210.88300      138.03300      100.12200
N        213.17800      140.33900      100.01000
C        213.57500      141.45000       99.15300
C        215.05400      141.75900       99.31800
O        215.76300      141.98200       98.33200
C        212.73100      142.68500       99.46100
C        211.25800      142.51200       99.13400
C        210.45600      143.73300       99.55100
N        210.84800      144.92500       98.80600
C        210.38700      146.14600       99.05400
N        209.51500      146.34000      100.03200
N        210.80100      147.17300       98.32500
N        215.54000      141.77000      100.56100
C        216.97100      141.96000      100.78100
C        217.77800      140.81900      100.17400
O        218.86700      141.03600       99.62800
C        217.26500      142.08700      102.27400
C        218.33800      143.10800      102.59800
C        218.47500      143.30300      104.09400
N        217.23600      143.78200      104.69400
C        216.96900      145.06300      104.92500
N        217.85800      145.99300      104.60900
N        215.81400      145.41400      105.47600
N        217.25700      139.59400      100.25300
C        217.95400      138.45500       99.66000
C        218.02300      138.60200       98.14300
O        219.05600      138.32100       97.52000
C        217.27300      137.13900      100.08000
C        217.40800      136.93200      101.58900
C        217.87100      135.95900       99.32800
C        218.80900      137.14700      102.11100
N        216.93100      139.05600       97.52500
C        216.94000      139.29600       96.08700
C        217.89700      140.42500       95.72200
O        218.53200      140.39100       94.66200
C        215.52700      139.60800       95.59800
N        218.00400      141.44000       96.58300
C        218.99700      142.48500       96.35800
C        220.40500      141.90900       96.38800
O        221.25400      142.28100       95.56900
C        218.84900      143.59300       97.39900
C        217.52500      144.32600       97.33900
S        216.72400      144.19000       95.73000
C        215.23400      145.13800       96.01600
N        220.66900      141.00300       97.33200
C        221.93000      140.26900       97.32000
C        222.11400      139.52900       96.00400
O        223.22700      139.45900       95.47100
C        221.98900      139.28400       98.48700
C        221.81300      139.84200       99.89600
C        222.08200      138.75800      100.92600
C        222.72200      141.04000      100.11500
N        221.02700      138.97000       95.46600
C        221.11200      138.25800       94.19400
C        221.54300      139.18900       93.06700
O        222.20000      138.75600       92.11300
C        219.77200      137.60000       93.86700
N        221.18100      140.46500       93.15600
C        221.58000      141.44900       92.15500
C        223.04500      141.84500       92.32400
O        223.94500      141.01200       92.21000
C        220.68700      142.68700       92.24100
C        220.74400      143.58300       91.02300
C        221.70000      144.58300       90.91400
C        219.83400      143.43400       89.98700
C        221.75000      145.40700       89.80500
C        219.87700      144.25400       88.87500
C        220.83600      145.23800       88.78900
O        220.87800      146.05300       87.68200
N        148.42400      145.27700      123.20600
C        147.17300      144.87000      123.83700
C        147.19200      143.38100      124.16400
O        147.23900      142.53900      123.26900
C        145.98500      145.19700      122.93400
C        144.63100      145.13300      123.62400
C        144.54100      146.03800      124.83600
O        144.11100      147.18500      124.73400
N        144.93400      145.52200      125.99400
N        147.14700      143.05900      125.45300
C        147.31800      141.67800      125.86900
C        146.09200      140.84700      125.53600
O        144.95800      141.32600      125.56600
C        147.60000      141.59900      127.36200
C        149.00700      141.98500      127.70300
C        149.32600      143.29300      127.99100
C        150.02000      141.04400      127.71700
C        150.60600      143.65600      128.29400
C        151.30500      141.39800      128.02100
C        151.59000      142.71100      128.30800
O        152.86900      143.09100      128.61400
N        146.34100      139.58100      125.22100
C        145.30400      138.61500      124.90700
C        145.97100      137.26300      124.72900
O        147.16300      137.18600      124.43000
C        144.53500      139.00000      123.64500
O        143.71400      137.90400      123.23900
C        145.50200      139.35800      122.52900
N        145.19500      136.19800      124.91100
C        145.77300      134.85600      124.85800
C        146.26600      134.49600      123.46700
O        147.37000      133.94500      123.35300
C        144.78500      133.83200      125.43200
C        144.57600      134.10300      126.91500
C        145.31300      132.43400      125.21900
C        145.82300      133.98200      127.72500
N        145.52800      134.74000      122.38100
C        146.10700      134.47100      121.05200
C        147.43300      135.16900      120.82400
O        148.38500      134.55300      120.32300
C        145.02300      134.98400      120.10000
C        143.76900      134.81700      120.85300
C        144.09700      135.07300      122.28900
N        147.51400      136.45200      121.16900
C        148.76500      137.16600      121.01500
C        149.87700      136.54600      121.83200
O        150.99800      136.39000      121.34900
N        149.57500      136.16600      123.07100
C        150.58700      135.56600      123.93000
C        151.08400      134.26000      123.33700
O        152.28200      133.96000      123.37000
C        150.01800      135.36800      125.34100
C        150.12400      136.67100      126.12100
C        150.72600      134.24100      126.04800
C        149.61000      136.57500      127.51600
N        150.17700      133.46300      122.78200
C        150.59000      132.18400      122.22200
C        151.44900      132.38500      120.98300
O        152.48500      131.72800      120.82600
C        149.36600      131.33300      121.90400
C        148.48000      130.98600      123.10200
C        147.65900      129.74700      122.82100
C        149.29400      130.81200      124.37200
N        151.02700      133.27900      120.08500
C        151.86200      133.61300      118.93500
C        153.22200      134.11300      119.38800
O        154.25000      133.79600      118.77900
C        151.17600      134.66300      118.06500
C        150.68800      134.13700      116.75300
N        151.46100      134.15700      115.61200
C        149.50200      133.59100      116.39500
C        150.77500      133.63900      114.60900
N        149.58300      133.28800      115.05800
N        153.24500      134.87600      120.47500
C        154.46900      135.43700      121.02000
C        155.41400      134.33800      121.47400
O        156.57800      134.30800      121.07000
C        154.13500      136.36500      122.18300
C        155.33900      136.92800      122.87600
C        155.90400      136.27800      123.95600
C        155.90600      138.11700      122.45800
C        157.00100      136.78600      124.59400
C        157.00500      138.63800      123.09100
C        157.55000      137.96700      124.16000
O        158.65400      138.47900      124.79900
N        154.92400      133.42600      122.30300
C        155.72400      132.31800      122.79100
C        156.20500      131.43700      121.64900
O        157.36400      131.02700      121.63400
C        154.96400      131.48100      123.84000
C        155.40400      131.85200      125.25100
C        155.24200      130.01300      123.63900
C        155.37200      133.31000      125.53700
N        155.34100      131.14200      120.67700
C        155.76300      130.30100      119.56300
C        156.88800      130.96400      118.77900
O        157.96000      130.37500      118.57800
C        154.57800      129.99200      118.65000
C        155.00100      129.51000      117.27300
C        153.87200      129.52600      116.26600
O        152.76100      129.08300      116.55300
N        154.15200      130.04300      115.07400
N        156.65700      132.19600      118.31800
C        157.68500      132.89600      117.56400
C        158.95100      133.06500      118.38500
O        160.05500      132.93200      117.85200
C        157.16100      134.25200      117.09500
C        156.06500      134.15800      116.07800
N        155.57800      132.95500      115.61500
C        155.36000      135.12000      115.43500
C        154.62100      133.17900      114.73100
N        154.46900      134.48500      114.60400
N        158.81900      133.31300      119.68500
C        160.00300      133.56700      120.49600
C        160.80600      132.29800      120.74600
O        162.04000      132.32900      120.73200
C        159.60500      134.20200      121.81900
C        160.76400      134.77900      122.56800
C        160.43700      136.13300      123.14100
O        160.17100      137.05700      122.34900
O        160.44100      136.27300      124.38200
N        160.13000      131.17800      120.98700
C        160.83000      129.91000      121.11900
C        161.53200      129.54500      119.82300
O        162.67900      129.07900      119.83400
C        159.84500      128.82200      121.51500
C        160.47400      127.67200      122.17200
C        160.46100      126.38100      121.74700
C        161.21000      127.68900      123.39100
N        161.15000      125.58800      122.62700
C        161.62000      126.37000      123.64800
C        161.56500      128.69300      124.29200
C        162.36600      126.02900      124.76500
C        162.30400      128.35400      125.39900
C        162.69800      127.03300      125.62800
N        160.85300      129.74200      118.69100
C        161.48700      129.49600      117.40200
C        162.72800      130.35900      117.23400
O        163.77000      129.89000      116.75800
C        160.49200      129.75800      116.27400
N        162.62500      131.63700      117.60600
C        163.77700      132.52200      117.52700
C        164.91300      132.01300      118.39700
O        166.06400      131.97700      117.96000
C        163.39500      133.93900      117.94100
C        164.52100      134.67300      118.64100
C        164.05400      135.96100      119.27700
N        164.94200      136.37100      120.36000
C        164.83900      137.52000      121.01900
N        163.88300      138.38300      120.70800
N        165.69300      137.80500      121.99100
N        164.60700      131.60300      119.62700
C        165.65800      131.12500      120.51700
C        166.34700      129.90200      119.93800
O        167.57400      129.78100      120.00400
C        165.08900      130.80200      121.89400
C        164.75900      132.01300      122.71300
C        164.84000      133.28300      122.16900
C        164.36000      131.88000      124.03100
C        164.53400      134.39600      122.92600
C        164.05100      132.98800      124.79100
C        164.13900      134.24700      124.23900
N        165.57800      128.99900      119.33700
C        166.17600      127.77200      118.82200
C        167.03200      128.04200      117.59000
O        168.19400      127.61900      117.52800
C        165.09000      126.74500      118.52000
C        164.37600      126.27300      119.76400
C        165.34100      125.91000      120.86500
O        166.30600      125.16700      120.59300
O        165.14500      126.38300      122.00100
N        166.47800      128.73900      116.59300
C        167.27900      129.05700      115.41600
C        168.48700      129.90200      115.79000
O        169.55000      129.78800      115.16600
C        166.43100      129.77000      114.36000
C        165.99300      131.18200      114.73000
S        167.14300      132.47100      114.20800
C        167.25800      132.13600      112.45400
N        168.35700      130.72200      116.83000
C        169.46200      131.56700      117.24000
C        170.55800      130.74800      117.89700
O        171.74100      130.95800      117.62000
C        168.95500      132.65400      118.17800
C        169.98800      133.68700      118.50300
C        169.39300      135.04100      118.78600
O        168.43600      135.42600      118.08400
O        169.87800      135.71800      119.71600
N        170.19100      129.80700      118.76600
C        171.20000      128.91400      119.31800
C        171.86700      128.10000      118.21900
O        173.06700      127.81800      118.29600
C        170.58200      127.99500      120.36700
C        171.45900      126.81900      120.72900
C        170.98000      126.13000      121.98400
N        171.59300      124.81400      122.13700
C        171.60200      124.12000      123.27000
N        171.03600      124.61800      124.36000
N        172.18200      122.92800      123.31500
N        171.11700      127.73500      117.18000
C        171.71400      127.00700      116.06400
C        172.76300      127.85300      115.35500
O        173.87700      127.38500      115.07700
C        170.62900      126.56900      115.08400
N        172.40800      129.09600      115.02200
C        173.38100      129.99600      114.41200
C        174.57800      130.20200      115.32700
O        175.72100      130.27900      114.86200
C        172.72800      131.33100      114.07300
C        171.84000      131.27600      112.87100
N        171.71400      132.32800      111.98900
C        171.03400      130.29500      112.40400
C        170.86800      131.99700      111.03000
N        170.44000      130.76800      111.25900
N        174.33700      130.27600      116.63500
C        175.43300      130.39300      117.58700
C        176.37400      129.20900      117.48700
O        177.59300      129.37600      117.47700
C        174.89700      130.48800      119.00800
C        174.09600      131.68400      119.28300
C        173.93500      132.77400      118.48400
C        173.32700      131.92300      120.45700
N        173.11100      133.68500      119.09600
C        172.72500      133.18200      120.31100
C        173.09300      131.19400      121.62300
C        171.90200      133.72500      121.28600
C        172.28200      131.73300      122.58200
C        171.69100      132.98200      122.41100
N        175.82300      127.99800      117.44200
C        176.67300      126.81300      117.43100
C        177.46700      126.72100      116.13800
O        178.65900      126.38200      116.15300
C        175.83500      125.55400      117.63800
C        175.09200      125.53700      118.95500
C        175.82700      126.29400      120.04200
O        176.94600      125.88500      120.41500
O        175.29000      127.31500      120.50900
N        176.82900      127.02400      115.00700
C        177.55700      126.95700      113.74400
C        178.66200      128.00800      113.71500
O        179.80200      127.71700      113.33100
C        176.59700      127.07000      112.54200
C        176.00700      128.46100      112.40600
C        177.31200      126.67100      111.26200
N        178.36700      129.22800      114.17500
C        179.39800      130.25600      114.21900
C        180.48400      129.90100      115.22100
O        181.65600      130.22800      115.01600
C        178.78000      131.60800      114.55700
C        177.89400      132.15900      113.46500
C        178.59300      132.21100      112.12500
O        179.76300      132.64400      112.08300
O        177.97200      131.82200      111.11400
N        180.11900      129.21700      116.30200
C        181.09800      128.85400      117.31500
C        182.09000      127.84500      116.76700
O        183.30500      128.01900      116.89800
C        180.39100      128.29900      118.55000
C        181.28900      128.14400      119.76500
C        180.50100      128.34700      121.04700
N        181.28300      128.05500      122.24100
C        181.06900      127.00700      123.02600
N        180.09400      126.15700      122.74000
N        181.82500      126.81000      124.09700
N        181.58400      126.77000      116.16100
C        182.47700      125.81000      115.52100
C        183.31500      126.48100      114.44200
O        184.51300      126.19500      114.30400
C        181.67400      124.65000      114.93400
N        182.70500      127.38900      113.67300
C        183.45100      128.10500      112.64800
C        184.61200      128.88000      113.25200
O        185.73300      128.82300      112.74400
C        182.51800      129.04300      111.88400
C        183.20600      129.87600      110.81800
C        183.66200      131.22300      111.33300
O        184.87800      131.39500      111.54900
O        182.80400      132.10800      111.52500
N        184.36300      129.60600      114.34100
C        185.41800      130.41200      114.94400
C        186.48900      129.54000      115.58100
O        187.67900      129.87600      115.53600
C        184.83000      131.36600      115.97700
C        183.88300      132.43900      115.44900
C        183.60200      133.47600      116.52100
C        184.45900      133.08800      114.21200
N        186.08800      128.42600      116.19700
C        187.07900      127.49600      116.72800
C        188.01200      127.01400      115.62800
O        189.23900      127.10000      115.76000
C        186.39800      126.30700      117.40800
C        185.43600      126.67800      118.52300
C        186.12600      126.89400      119.85400
O        186.94900      127.79700      120.00000
N        185.78900      126.06600      120.83500
N        187.44600      126.52100      114.52400
C        188.27900      126.04700      113.42400
C        189.10500      127.18000      112.82700
O        190.25000      126.97100      112.40900
C        187.41200      125.39100      112.35100
N        188.54700      128.39100      112.79000
C        189.26500      129.52000      112.21500
C        190.49400      129.86600      113.03800
O        191.58800      130.04600      112.49000
C        188.34100      130.73100      112.10800
C        188.97500      131.91800      111.41400
C        189.62400      131.48300      110.11600
N        190.75600      132.32900      109.75000
C        190.74400      133.21000      108.75600
N        189.65500      133.36500      108.01600
N        191.82500      133.93100      108.49700
N        190.33800      129.97100      114.35800
C        191.49200      130.28400      115.19100
C        192.46200      129.11200      115.21200
O        193.67300      129.30300      115.34400
C        191.06100      130.69500      116.61100
C        190.56700      129.48700      117.40700
C        190.02800      131.80800      116.55400
C        190.96500      129.52500      118.86500
N        191.95900      127.88500      115.05300
C        192.86700      126.74900      114.93700
C        193.74800      126.88400      113.70300
O        194.97400      126.72900      113.78000
C        192.07600      125.44300      114.89400
N        193.13900      127.19700      112.55800
C        193.89900      127.38000      111.32600
C        194.87300      128.54200      111.44600
O        196.01400      128.46100      110.98100
C        192.94600      127.61000      110.15500
C        193.39900      128.68600      109.21100
C        194.41500      128.45000      108.30300
C        192.81400      129.93600      109.23900
C        194.83200      129.43800      107.44100
C        193.22700      130.92600      108.37700
C        194.23700      130.67800      107.47800
N        194.43500      129.64600      112.04900
C        195.30400      130.81400      112.13000
C        196.44900      130.60000      113.11400
O        197.56400      131.07200      112.87400
C        194.48600      132.04700      112.49800
C        193.97900      132.86000      111.30500
C        192.92200      133.85100      111.74600
C        195.13200      133.57600      110.63100
N        196.20700      129.88000      114.21200
C        197.29900      129.49800      115.09700
C        198.26700      128.55700      114.39300
O        199.48500      128.65000      114.58400
C        196.74300      128.85200      116.36500
N        197.74400      127.63900      113.57600
C        198.62200      126.79300      112.78600
C        199.46200      127.58900      111.80700
O        200.64000      127.29400      111.59900
N        198.86800      128.61500      111.19800
C        199.61400      129.47800      110.28800
C        200.68500      130.25900      111.03500
O        201.79400      130.45400      110.52900
C        198.66300      130.43000      109.56300
N        200.36500      130.72400      112.24400
C        201.35800      131.42200      113.05300
C        202.50900      130.49700      113.42900
O        203.67600      130.89900      113.39100
C        200.70400      132.00500      114.30500
N        202.20000      129.24800      113.78400
C        203.25300      128.28700      114.10000
C        204.10200      127.97400      112.87200
O        205.33000      127.84000      112.96700
C        202.64000      127.00800      114.67100
N        203.46000      127.84600      111.70900
C        204.20800      127.62900      110.48400
C        205.11600      128.79400      110.14900
O        206.26200      128.60100      109.74500
N        204.62300      130.02200      110.33200
C        205.45300      131.19800      110.09500
C        206.57400      131.29400      111.12100
O        207.64900      131.82300      110.82600
C        204.59500      132.46200      110.11700
N        206.34400      130.77900      112.33100
C        207.40500      130.74300      113.33400
C        208.51800      129.78900      112.92100
O        209.70300      130.14900      112.95100
C        206.83000      130.33900      114.69000
N        208.15400      128.56100      112.54600
C        209.14700      127.63200      112.01400
C        209.81400      128.20400      110.76900
O        211.00400      127.97300      110.52600
C        208.49700      126.28400      111.70800
N        209.06300      128.97600      109.98100
C        209.61800      129.59900      108.78700
C        210.67500      130.63100      109.14300
O        211.75000      130.65400      108.54100
C        208.50100      130.24000      107.96600
N        210.38300      131.50100      110.11000
C        211.36100      132.49800      110.53200
C        212.58200      131.83500      111.15700
O        213.71200      132.31300      110.99000
C        210.72100      133.48100      111.51100
N        212.37400      130.72800      111.87600
C        213.50600      129.97000      112.39900
C        214.37800      129.43400      111.26900
O        215.60900      129.56400      111.30300
C        213.00800      128.82800      113.28400
N        213.75700      128.83600      110.25100
C        214.51900      128.35300      109.10400
C        215.20900      129.50300      108.37800
O        216.32000      129.34400      107.85900
C        213.60300      127.58600      108.15200
N        214.57100      130.67500      108.34600
C        215.14300      131.81300      107.63700
C        216.37600      132.34100      108.35300
O        217.38900      132.63900      107.71300
C        214.10200      132.92200      107.47600
C        212.93800      132.63800      106.52300
C        211.74400      133.53600      106.83400
C        213.36500      132.77400      105.07000
N        216.31600      132.46400      109.68000
C        217.50200      132.90400      110.41000
C        218.59200      131.84000      110.33500
O        219.78800      132.15800      110.27000
C        217.14900      133.27600      111.86400
C        216.49800      132.12000      112.58900
C        218.39000      133.74300      112.61300
N        218.19900      130.56100      110.30600
C        219.18400      129.50000      110.12200
C        219.90200      129.64100      108.78500
O        221.13000      129.52200      108.71300
C        218.51000      128.13200      110.22900
N        219.15000      129.90000      107.71400
C        219.76500      130.06300      106.40100
C        220.60100      131.33300      106.33900
O        221.63400      131.37000      105.66000
C        218.69300      130.07100      105.31300
N        220.16600      132.38600      107.03300
C        220.94400      133.62000      107.08700
C        222.30000      133.36000      107.72800
O        223.34000      133.79600      107.21800
C        220.16000      134.71400      107.83500
C        218.97800      135.19900      106.99300
C        221.07200      135.87200      108.20200
C        219.33000      135.49400      105.55300
N        222.31200      132.64000      108.85100
C        223.58000      132.25300      109.46200
C        224.37700      131.33700      108.53900
O        225.61300      131.38300      108.52200
C        223.33300      131.57700      110.81000
N        223.68600      130.50200      107.75900
C        224.37800      129.56000      106.88500
C        225.03500      130.26900      105.70600
O        226.16000      129.93200      105.31900
C        223.40400      128.48900      106.39300
N        224.35100      131.24700      105.12000
C        224.89300      131.96400      103.97000
C        225.89500      133.02300      104.41700
O        226.49900      133.70600      103.59000
C        223.76700      132.60300      103.14500
C        222.90800      133.71100      103.76200
C        223.46800      135.09400      103.44400
C        221.47000      133.59500      103.28200
N         80.88200      115.15100      180.70800
C         80.51800      116.24600      179.81500
C         79.08600      116.68900      180.04600
O         78.40200      116.18600      180.93700
C         80.70300      115.83800      178.35900
N         78.65100      117.65000      179.23600
C         77.25100      118.03900      179.13400
C         76.90500      118.15900      177.65800
O         77.16500      119.19400      177.03500
C         76.98000      119.35400      179.87000
C         78.02600      120.40600      179.58600
O         77.74600      121.60300      179.63200
N         79.24100      119.96500      179.28800
N         76.32600      117.10200      177.10400
C         75.88900      117.10400      175.72000
C         74.77000      118.12200      175.54600
O         74.19600      118.60400      176.52300
C         75.43800      115.69900      175.33200
N         74.44100      118.49300      174.31300
C         73.33200      119.42500      174.10300
C         71.98900      118.80400      174.45800
O         71.87400      117.61600      174.76100
C         73.41200      119.75500      172.60800
C         74.23500      118.68200      172.02100
C         75.20800      118.28400      173.07700
N         70.96300      119.64800      174.42900
C         69.63200      119.20700      174.81300
C         69.44100      119.06300      176.30700
O         68.40700      118.54700      176.75100
N         70.41800      119.50700      177.09700
C         70.35300      119.45000      178.55300
C         70.01900      120.81000      179.15800
O         70.83900      121.73200      179.12500
C         71.66100      118.90800      179.12100
O         72.72200      119.82700      178.83800
C         71.98100      117.55400      178.51500
N         68.82200      120.93900      179.72300
C         68.18300      122.24000      179.94500
C         69.00400      123.08300      180.92000
O         69.72100      123.99300      180.47700
C         66.75800      121.93900      180.38300
N         68.95200      122.82300      182.22300
C         69.72500      123.62100      183.16600
C         70.57700      122.76900      184.09200
O         71.79700      122.94400      184.18000
C         68.79100      124.50800      183.99000
N         69.92600      121.83000      184.78000
C         70.54700      121.19800      185.93700
C         71.39200      119.99900      185.54200
O         72.28500      119.59700      186.29800
C         69.47400      120.78600      186.94400
N         71.13200      119.41300      184.37200
C         71.97500      118.32500      183.89700
C         73.43700      118.73900      183.81700
O         74.32100      117.87700      183.88000
C         71.48600      117.83700      182.53500
N         73.69900      120.04300      183.70000
C         75.06700      120.54700      183.68700
C         75.83600      120.10800      184.92400
O         77.04500      119.85700      184.85800
C         75.04600      122.06700      183.59400
C         74.74400      122.58300      182.22600
C         74.78000      123.93800      181.96500
C         74.43400      121.71700      181.19800
C         74.50600      124.42100      180.70500
C         74.15900      122.19500      179.93700
C         74.19400      123.54900      179.69200
N         75.15800      120.02000      186.06100
C         75.80200      119.59000      187.29000
C         75.47300      118.13400      187.57200
O         76.01400      117.53800      188.50100
C         75.37700      120.46600      188.44900
N         74.58700      117.56100      186.76600
C         74.19900      116.17100      186.95500
C         75.28700      115.24800      186.43600
O         75.28500      114.05200      186.72300
C         72.87500      115.88400      186.26400
N         76.21500      115.80400      185.66800
C         77.34500      115.03200      185.18200
C         78.22600      114.60800      186.35100
O         78.41700      113.41900      186.59700
C         78.15200      115.83500      184.16200
C         79.30500      116.57200      184.75900
C         79.31400      117.86400      185.18900
C         80.62000      116.05900      185.00000
N         80.55300      118.19000      185.68200
C         81.37200      117.09700      185.58000
C         81.23100      114.81900      184.78900
C         82.70700      116.93700      185.94400
C         82.55400      114.66100      185.15300
C         83.27800      115.71400      185.72300
N         93.54800      118.25400      181.48600
C         94.55000      119.21600      181.92400
C         93.91700      120.43500      182.57600
O         92.73500      120.71600      182.37800
C         95.42600      119.69800      180.75700
O         96.14300      120.87400      181.15300
C         94.56800      120.02400      179.55300
N         94.72600      121.14900      183.35700
C         94.32600      122.41500      183.96400
C         93.06900      122.25400      184.81000
O         92.19300      123.11900      184.83100
C         94.13000      123.48600      182.89700
C         95.44500      123.90500      182.24900
C         95.20500      124.93600      181.16700
C         96.39300      124.43400      183.30300
N         92.99100      121.14000      185.53700
C         91.85900      120.84500      186.40200
C         91.71600      121.85700      187.53000
O         90.72800      121.81300      188.27100
C         91.97900      119.43200      186.97300
N         92.68300      122.76800      187.67200
C         92.56800      123.81600      188.67800
C         91.31100      124.63800      188.43300
O         90.58700      124.98800      189.37300
C         93.84300      124.68200      188.69400
C         95.06900      123.79700      188.75300
C         93.92700      125.57200      187.47500
N         90.99600      124.90600      187.16500
C         89.74900      125.58600      186.85100
C         88.56200      124.66600      187.08900
O         87.52200      125.10000      187.59100
C         89.77400      126.08700      185.41000
C         88.50300      126.79500      184.97900
C         88.63300      127.44100      183.61400
O         88.65000      126.75800      182.59000
N         88.72400      128.76500      183.59300
N         88.70400      123.38700      186.74800
C         87.64400      122.43000      187.04400
C         87.48200      122.24600      188.54500
O         86.36600      122.05200      189.03700
C         87.94200      121.09500      186.36600
C         87.99500      121.16500      184.85100
C         89.28000      121.77800      184.34400
O         89.56000      122.94600      184.60000
N         90.07700      120.98900      183.63700
N         88.58500      122.31200      189.28900
C         88.50500      122.25900      190.74400
C         87.72600      123.45700      191.27900
O         86.83200      123.31200      192.12300
C         89.91700      122.20400      191.33100
C         90.03000      121.54800      192.69100
C         88.91100      121.32600      193.47900
C         91.26500      121.14500      193.18100
C         89.02000      120.73100      194.72000
C         91.38200      120.54900      194.41600
C         90.25800      120.34400      195.18200
O         90.37600      119.74800      196.41600
N         88.05200      124.65300      190.78800
C         87.35100      125.87000      191.18100
C         85.87300      125.73100      190.85700
O         85.01200      126.10200      191.65900
C         87.93200      127.10600      190.47900
C         89.36700      127.35900      190.92700
C         87.07500      128.31900      190.76000
C         90.10600      128.32100      190.03600
N         85.57500      125.19400      189.67600
C         84.19000      125.05700      189.24600
C         83.43300      124.08200      190.13400
O         82.27700      124.32800      190.49300
C         84.14600      124.60200      187.78900
C         82.76700      124.22800      187.29700
C         81.91800      125.43900      186.98900
O         80.69100      125.39000      187.06400
N         82.57000      126.53700      186.63100
N         84.06400      122.96200      190.48000
C         83.43500      122.00600      191.37900
C         83.17100      122.64200      192.73500
O         82.09900      122.45400      193.32300
C         84.32200      120.76800      191.51000
C         83.61800      119.52700      192.02600
C         84.49900      118.29200      191.95900
O         85.69400      118.35400      192.24400
N         83.91200      117.16400      191.57500
N         84.12600      123.43200      193.22800
C         83.94000      124.10300      194.51000
C         82.81500      125.12600      194.43700
O         82.05200      125.29100      195.39600
C         85.24300      124.76700      194.94400
C         86.38400      123.78000      195.06900
O         86.16600      122.57900      195.22100
N         87.61100      124.28300      195.00900
N         82.69500      125.81800      193.30700
C         81.64700      126.81900      193.15000
C         80.28100      126.15000      193.10200
O         79.35600      126.53300      193.82600
C         81.89900      127.66400      191.89100
C         83.12500      128.55900      192.08000
C         80.66800      128.48300      191.55300
C         82.83100      129.86300      192.78000
N         80.13600      125.14000      192.24400
C         78.87600      124.41900      192.14000
C         78.50400      123.72700      193.44000
O         77.31500      123.50100      193.68500
C         78.94700      123.39100      191.01400
C         79.28800      123.97800      189.66600
C         79.84300      122.91000      188.74900
N         79.58900      123.21200      187.34400
C         79.97800      122.44100      186.33500
N         80.64200      121.32000      186.57400
N         79.70600      122.79100      185.08500
N         79.49200      123.37300      194.26700
C         79.19900      122.81500      195.58200
C         78.23600      123.71600      196.34200
O         77.15900      123.28600      196.76800
C         80.49700      122.61500      196.36500
N         78.61200      124.98000      196.50800
C         77.70200      126.02000      196.96000
C         78.37600      127.36300      196.74900
O         79.57600      127.50300      196.99400
C         77.31200      125.85000      198.43400
C         76.11500      126.69600      198.81900
O         75.49400      127.29600      197.91700
O         75.79300      126.76200      200.02400
N         77.60000      128.34000      196.30800
C         78.10500      129.69600      196.15100
C         78.26800      130.40400      197.46900
O         78.47900      131.62200      197.49200
C         77.17400      130.49500      195.24000
S         75.41900      130.30000      195.61700
N         78.16800      129.66200      198.57000
C         78.20800      130.22200      199.91300
C         79.55400      130.02200      200.59600
O         80.05400      130.93800      201.25500
C         77.09400      129.60300      200.76300
O         75.87500      129.55300      200.04200
N         80.15900      128.84700      200.44500
C         81.36300      128.52000      201.19600
C         82.55900      129.32100      200.70100
O         83.20700      128.95300      199.71800
C         81.64800      127.02300      201.11500
C         81.57000      126.49100      199.70300
O         82.58100      126.38400      199.01400
N         80.36800      126.14700      199.26500
N         82.85600      130.42100      201.39000
C         83.93200      131.31100      200.96300
C         85.28200      130.62200      201.10000
O         86.00500      130.42200      200.11600
C         83.88600      132.61700      201.77500
C         82.51500      133.28100      201.63500
C         84.99900      133.54500      201.35400
C         82.24700      134.33600      202.67300
N         85.64000      130.25700      202.33000
C         86.93700      129.64100      202.58000
C         87.10200      128.35000      201.79200
O         88.14600      128.13000      201.17100
C         87.10600      129.38900      204.07700
C         86.03100      128.48400      204.63600
O         86.31800      127.73500      205.59300
O         84.89800      128.52100      204.11200
N         86.07700      127.49400      201.79200
C         86.20300      126.18500      201.15800
C         86.65600      126.30700      199.71000
O         87.53100      125.55800      199.26000
C         84.87900      125.42900      201.24800
C         84.90800      124.07600      200.56700
C         83.52100      123.65200      200.13000
C         82.55300      123.66500      201.29900
N         81.13900      123.58300      200.84300
N         86.08200      127.25500      198.96600
C         86.58100      127.54200      197.62400
C         87.96200      128.17400      197.70000
O         88.87600      127.80100      196.95500
C         85.59600      128.44900      196.86300
C         84.24100      127.76300      196.69800
C         86.17100      128.83200      195.51700
C         83.15700      128.67900      196.18300
N         88.13900      129.13100      198.60700
C         89.41700      129.80100      198.78600
C         90.46600      128.92000      199.45400
O         91.57100      129.40000      199.71900
C         89.22900      131.08000      199.60300
C         88.53700      132.24200      198.89400
C         88.30300      133.37700      199.87500
C         89.35400      132.70900      197.70200
N         90.15200      127.66300      199.74100
C         91.15900      126.72900      200.23900
C         92.02100      126.24500      199.07800
O         91.51700      125.51900      198.21000
C         90.49300      125.53700      200.93200
C         89.77800      125.84000      202.25500
C         90.47100      126.89900      203.09400
O         89.87800      127.97900      203.29600
O         91.59700      126.64400      203.57000
N         93.30800      126.60300      199.01500
C         94.12700      126.18900      197.87500
C         94.22500      124.67400      197.80100
O         94.02100      123.97800      198.80700
C         95.49800      126.82200      198.17000
C         95.22100      127.91600      199.14400
C         94.06200      127.44100      199.96400
N         94.53800      124.12000      196.62400
C         94.63600      122.66700      196.47600
C         95.91000      122.10800      197.09700
O         96.57900      121.30800      196.44400
C         94.64300      122.47800      194.96200
C         95.32400      123.71200      194.46000
C         94.90300      124.82500      195.38300
N        100.11400      124.82500      194.71600
C        100.67000      126.08100      194.23000
C         99.96600      127.26200      194.88400
O         98.97400      127.08600      195.59000
C        100.54700      126.17200      192.70800
C        101.46300      127.22200      192.11100
O        102.47100      126.84600      191.48100
O        101.17800      128.42700      192.27800
N        100.49500      128.45800      194.66800
C         99.82900      129.67300      195.12300
C         99.68800      130.71900      194.02800
O         98.66600      131.40500      193.97200
C        100.57700      130.25800      196.33600
C        102.03500      130.61800      196.08700
C        102.21400      131.97700      195.44500
O        101.38000      132.86900      195.70400
O        103.18800      132.15300      194.68500
N        100.67600      130.84700      193.14800
C        100.64500      131.87400      192.12400
C         99.62100      131.61900      191.03800
O         98.69300      132.41500      190.84200
N         99.78900      130.50600      190.32000
C         98.84600      130.14900      189.26700
C         97.44300      130.02600      189.84100
O         96.44700      130.24900      189.14200
C         99.29400      128.85400      188.56300
C         99.41200      127.71600      189.56000
C         98.33700      128.48600      187.45300
N         97.33800      129.69400      191.13000
C         96.01800      129.64900      191.74400
C         95.41800      131.04100      191.82200
O         94.23900      131.22900      191.50900
C         96.07200      129.02900      193.13800
C         94.76500      128.40300      193.50100
C         94.05800      127.52700      192.74700
C         93.98200      128.65900      194.66100
N         92.89300      127.18200      193.37800
C         92.81700      127.87000      194.55800
C         94.15600      129.46300      195.77500
C         91.83700      127.85800      195.53200
C         93.18300      129.45000      196.74500
C         92.03200      128.66300      196.61400
N         96.21000      132.02500      192.25200
C         95.75100      133.40900      192.21900
C         95.32300      133.80100      190.81500
O         94.30600      134.47800      190.63000
C         96.85600      134.34000      192.71000
C         97.09600      134.31000      194.20200
C         97.90600      135.51600      194.62100
C         99.05800      135.10100      195.50200
N         99.86700      136.25300      195.96800
N         96.09500      133.38000      189.81400
C         95.76300      133.69800      188.42900
C         94.38800      133.16200      188.05500
O         93.49600      133.91700      187.64600
C         96.83600      133.12100      187.50900
C         96.49900      133.16800      186.04300
C         96.83800      134.26700      185.27400
C         95.86100      132.10700      185.42300
C         96.53600      134.31500      183.93700
C         95.55800      132.15000      184.08400
C         95.90000      133.25700      183.34700
O         95.60300      133.31200      182.00900
N         94.21100      131.84800      188.17600
C         92.94200      131.23600      187.81100
C         91.80000      131.82400      188.61700
O         90.68000      131.97400      188.11200
C         93.01500      129.72600      188.01100
C         94.18800      129.09500      187.30900
C         93.89000      128.78900      185.85800
O         92.81000      129.19300      185.37800
O         94.73600      128.15500      185.19300
N         92.06400      132.18400      189.86900
C         90.98300      132.69100      190.69400
C         90.58900      134.09600      190.28000
O         89.40400      134.42500      190.27100
C         91.36500      132.62600      192.16500
C         90.68700      131.51100      192.89000
N         89.36200      131.56500      193.25800
C         91.13700      130.29500      193.27400
C         89.03100      130.43700      193.85900
N         90.08900      129.64900      193.88100
N         91.55200      134.93200      189.90300
C         91.19000      136.24700      189.38800
C         90.42600      136.12500      188.07900
O         89.47600      136.88100      187.82300
C         92.43700      137.10200      189.20500
C         92.54800      138.22700      190.22600
C         93.96100      138.73800      190.27700
C         91.59000      139.33900      189.86500
N         90.83500      135.17900      187.23500
C         90.06300      134.88600      186.03400
C         88.61400      134.59400      186.38800
O         87.69000      135.23200      185.86900
C         90.67800      133.70100      185.30000
C         91.53500      134.07500      184.12300
C         91.69300      132.88700      183.21500
N         92.79800      133.04900      182.28500
C         92.88200      132.40600      181.12800
N         93.91900      132.60500      180.32900
N         91.92500      131.56500      180.77200
N         88.40200      133.63000      187.28200
C         87.04600      133.26800      187.66600
C         86.31700      134.44600      188.29700
O         85.09800      134.58300      188.15100
C         87.07700      132.08000      188.61900
C         85.71500      131.69600      189.12900
C         84.84700      131.12600      188.03500
O         85.34800      130.58200      187.05300
N         83.53700      131.25800      188.19000
N         87.04900      135.32000      188.98700
C         86.41200      136.44600      189.65800
C         85.85200      137.43000      188.64800
O         84.69800      137.85600      188.75400
C         87.40400      137.13900      190.58900
C         87.84000      136.29100      191.74000
C         87.15600      135.12900      192.05900
C         88.94000      136.64400      192.49700
C         87.55700      134.34100      193.11300
C         89.34700      135.86000      193.55500
C         88.65500      134.70700      193.86400
N         86.65400      137.79600      187.64900
C         86.14200      138.68300      186.60600
C         85.02600      138.00900      185.81800
O         84.05300      138.66200      185.41100
C         87.27200      139.11800      185.67900
S         87.57300      137.99000      184.32000
N         85.14900      136.69900      185.59600
C         84.06800      135.95700      184.96100
C         82.75600      136.14400      185.70700
O         81.75000      136.55000      185.11700
C         84.42800      134.47900      184.88800
C         83.60700      133.70400      183.86900
C         84.02600      134.13300      182.49100
C         83.80400      132.21500      184.04900
N         82.75000      135.85400      187.00700
C         81.53300      136.01900      187.79400
C         81.09600      137.47500      187.82700
O         79.89800      137.77300      187.90700
C         81.75900      135.50200      189.21200
C         82.21600      134.06400      189.27200
C         82.23900      133.52200      190.68400
O         81.25400      133.74100      191.41800
O         83.23500      132.86700      191.05900
N         82.05700      138.39500      187.76100
C         81.76300      139.81500      187.85000
C         81.05500      140.33000      186.61500
O         80.37300      141.35700      186.69100
C         83.05700      140.58300      188.07300
C         82.97200      142.02300      188.54700
C         84.14900      142.25700      189.45000
C         83.01500      142.98600      187.38500
N         81.24700      139.67000      185.47600
C         80.45400      140.01200      184.29900
C         78.96800      140.05900      184.63400
O         78.21800      140.87600      184.08400
C         80.70600      139.00900      183.18100
C         79.65000      139.07300      182.10600
O         79.31100      140.14900      181.61700
N         79.10200      137.92100      181.74800
N         78.52300      139.17800      185.53000
C         77.12800      139.19300      185.92900
C         76.74300      140.48900      186.60800
O         75.72000      141.09500      186.28600
N         77.55300      140.92700      187.57200
C         77.29800      142.22000      188.19000
C         77.32900      143.32100      187.14600
O         76.57500      144.29400      187.23300
C         78.32200      142.49000      189.29200
C         78.20100      143.75100      190.15500
C         78.92800      143.52200      191.46100
C         78.76300      144.99700      189.48400
N         78.19900      143.18000      186.14900
C         78.31100      144.20200      185.11800
C         77.00700      144.34000      184.34800
O         76.51200      145.45100      184.13600
C         79.46500      143.87200      184.17500
N         76.43500      143.21400      183.91900
C         75.17500      143.28400      183.18300
C         74.04600      143.74300      184.09700
O         73.18200      144.53000      183.68800
C         74.85600      141.94200      182.49600
C         74.55200      140.86000      183.50100
C         73.66500      142.10600      181.57700
N         74.04600      143.29000      185.35400
C         73.00400      143.70900      186.28400
C         73.03600      145.21400      186.49600
O         71.98600      145.85800      186.60200
C         73.16100      142.98000      187.61600
C         72.21400      141.80900      187.79700
C         72.73100      140.57600      187.08300
C         72.11400      139.31100      187.64700
N         72.85100      138.10200      187.19800
N         74.23200      145.79500      186.55100
C         74.34300      147.23400      186.73500
C         73.98000      147.97300      185.45800
O         73.19300      148.92500      185.48300
C         75.75300      147.60000      187.18600
C         75.93400      149.08400      187.49700
C         74.77500      149.59800      188.33000
C         77.24900      149.32300      188.20900
N         74.54200      147.54300      184.32600
C         74.22200      148.16200      183.04700
C         72.72400      148.16600      182.79100
O         72.21500      149.04900      182.09200
C         74.96000      147.43200      181.92500
C         74.76400      148.04000      180.55300
C         73.53900      147.49400      179.85700
O         73.35600      146.28200      179.76000
N         72.67500      148.38800      179.39500
N         72.00400      147.18800      183.34400
C         70.55000      147.20500      183.24900
C         69.97200      148.49300      183.82200
O         69.00200      149.03800      183.28500
C         69.96600      145.99400      183.97300
O         70.19800      146.08300      185.36700
N         70.55800      149.00000      184.91000
C         70.02600      150.19200      185.55700
C         71.13200      151.13700      186.01700
O         70.97100      151.83900      187.02100
C         69.13300      149.81800      186.74200
C         68.05600      150.84600      187.07200
C         66.92800      150.86900      186.06100
O         66.10700      151.80700      186.11000
O         66.85800      149.94900      185.22000
N         72.25600      151.18000      185.30400
C         73.30500      152.15100      185.61900
C         72.99600      153.49100      184.95400
O         73.78200      154.04900      184.18800
C         74.67400      151.62900      185.20400
S         76.03800      152.46200      186.05900
N         71.80700      153.99500      185.26400
C         71.38400      155.28000      184.74800
C         72.25300      156.39000      185.33600
O         72.75300      156.27200      186.45700
C         69.92000      155.52900      185.09000
C         69.30900      156.67200      184.34300
N         68.86700      157.81800      184.96800
C         69.05300      156.84000      183.02400
C         68.37400      158.64700      184.06500
N         68.47500      158.07800      182.87800
N         72.46000      157.47300      184.59200
C         73.20100      158.61500      185.14300
C         72.43700      159.38500      186.21300
O         72.87800      160.46400      186.62300
C         73.46500      159.49300      183.91000
C         72.51700      159.00400      182.86400
C         72.33900      157.55000      183.12900
N         71.29400      158.85800      186.66000
C         70.51700      159.52400      187.70300
C         71.35400      159.73800      188.95800
O         71.47400      160.86100      189.46000
C         69.25500      158.71700      188.02200
C         69.49200      157.22100      187.99300
O         68.50800      156.46500      187.85500
O         70.66100      156.79900      188.11100
N         71.93600      158.66200      189.48700
C         72.89700      158.77700      190.57400
C         74.32000      158.45500      190.14200
O         75.26500      158.88900      190.80800
C         72.50600      157.86300      191.74200
O         73.35300      158.13500      192.86500
C         72.64500      156.39900      191.35100
N         74.49100      157.72400      189.04400
C         75.81300      157.35800      188.55500
C         76.45300      158.51100      187.79000
O         75.80900      159.15100      186.96000
C         75.72700      156.11800      187.66500
S         74.81100      154.75100      188.40600
N         83.79000      159.44700      189.49600
C         84.61700      158.70200      190.43500
C         86.08400      158.82200      190.03700
O         86.59500      159.92600      189.87000
C         84.17600      157.23100      190.51400
C         83.82700      156.69800      189.12200
C         82.99200      157.08300      191.45600
C         83.71700      155.19300      189.06200
N         86.75800      157.68500      189.88900
C         88.14500      157.67200      189.44500
C         88.18700      157.75800      187.92200
O         87.16700      157.95000      187.25400
C         88.85400      156.42300      189.95600
C         88.49800      156.06200      191.36100
C         88.80700      156.90800      192.40700
C         87.85300      154.87200      191.63600
C         88.47600      156.57600      193.70000
C         87.52200      154.53400      192.92400
C         87.83400      155.38600      193.95900
N         89.37600      157.60200      187.35400
C         89.56800      157.63100      185.91400
C         89.91300      156.24300      185.39700
O         90.57100      155.45500      186.07800
C         90.67000      158.62200      185.52800
C         92.04900      158.45300      186.16400
C         92.91100      157.44000      185.44000
C         92.73500      159.78900      186.17500
N         89.47600      155.95800      184.17600
C         89.75100      154.66400      183.58000
C         91.17000      154.61100      183.03100
O         91.82300      155.63300      182.82300
C         88.75500      154.36400      182.46800
S         89.32200      153.10700      181.31700
N         91.64000      153.39100      182.77900
C         92.97900      153.18200      182.25500
C         93.03300      152.24900      181.05800
O         94.09800      152.13500      180.44200
C         93.90600      152.63000      183.34700
N         91.93800      151.57000      180.71500
C         91.93600      150.75100      179.51100
C         92.18100      151.60200      178.27600
O         92.87500      151.17400      177.34700
C         90.61600      149.99500      179.39000
N         91.61800      152.80800      178.24500
C         91.96700      153.76000      177.20300
C         93.47200      154.00000      177.22500
O         94.12900      153.86500      178.26100
C         91.22000      155.08200      177.40200
C         89.81900      154.92100      177.90500
N         88.71200      155.17600      177.12500
C         89.34500      154.54800      179.12000
C         87.61900      154.95600      177.83800
N         87.97400      154.56400      179.04900
N         94.02600      154.33800      176.06100
C         95.46200      154.57900      175.97400
C         95.87000      155.72100      176.89200
O         96.62300      155.53000      177.85200
C         95.85400      154.87300      174.52600
C         95.68600      153.67900      173.60500
C         96.06900      154.04000      172.17200
C         95.93500      152.85500      171.22200
N         96.29000      153.23500      169.82600
N         95.36600      156.90700      176.62400
C         95.52600      158.00600      177.55500
C         94.37000      157.98500      178.54400
O         93.21300      158.10700      178.12700
C         95.56700      159.32600      176.81200
O         94.25000      159.66000      176.36100
C         96.47200      159.19500      175.61800
N         94.62800      157.81400      179.83600
C         93.53800      157.66300      180.81100
C         92.54500      158.81200      180.81200
O         92.89300      159.94800      181.14200
C         94.28700      157.57300      182.14400
C         95.61700      157.02700      181.77800
C         95.95000      157.62600      180.45100
N         91.30400      158.51500      180.44300
C         90.22100      159.48400      180.41000
C         89.12800      159.04800      181.37300
O         89.00100      157.86500      181.69700
C         89.65000      159.62300      178.99700
C         89.46400      158.29200      178.28800
C         88.85200      158.46300      176.90900
C         87.38600      158.84800      176.98800
N         86.56500      157.82700      177.69200
N         88.33300      160.01100      181.83200
C         87.30500      159.73400      182.83200
C         86.05200      159.15200      182.17700
O         84.96300      159.72000      182.23100
C         86.97200      160.99400      183.61800
C         88.13700      161.93000      183.80100
C         88.22700      162.95100      182.68900
O         87.19200      163.22700      182.04900
O         89.33500      163.47200      182.45100
N         86.22600      158.00000      181.54000
C         85.05800      157.27700      181.06300
C         84.22700      156.88300      182.27800
O         84.69700      156.11900      183.13000
C         85.46000      156.06200      180.22400
S         87.04400      155.31600      180.64100
N         82.99800      157.39500      182.40100
C         82.27200      157.29400      183.67600
C         81.87600      155.88000      184.06400
O         82.21400      154.91000      183.37700
C         81.03400      158.16900      183.44200
C         81.40400      159.05900      182.30600
C         82.27600      158.22600      181.42900
N         81.12700      155.78500      185.16600
C         80.92200      154.54300      185.90300
C         80.70100      153.33200      185.00800
O         81.44400      152.34900      185.07900
C         79.73700      154.71700      186.85500
N         79.68100      153.38600      184.15600
C         79.37500      152.23900      183.30900
C         80.49600      152.01300      182.30100
O         80.97700      150.88500      182.11600
C         78.01200      152.43700      182.62400
C         77.78900      151.37800      181.54800
C         77.88700      153.84500      182.06300
C         77.54800      150.00000      182.10600
N         80.92800      153.08600      181.63700
C         82.05700      152.98400      180.72500
C         83.29300      152.48900      181.45100
O         84.05700      151.68000      180.91400
C         82.32700      154.33800      180.08000
C         81.10800      154.90700      179.40400
O         80.36600      154.13100      178.76900
O         80.88500      156.13000      179.51200
N         83.51100      152.97400      182.67200
C         84.65600      152.52400      183.44800
C         84.59400      151.02500      183.67900
O         85.58600      150.31700      183.49400
C         84.71200      153.26200      184.78000
C         85.85100      152.80900      185.65100
C         87.12900      153.28900      185.44700
C         85.65200      151.90000      186.67600
C         88.17700      152.88200      186.23400
C         86.69800      151.48500      187.47000
C         87.95800      151.98200      187.24400
O         89.01100      151.58000      188.02600
N         83.43200      150.52800      184.09400
C         83.28400      149.10400      184.35300
C         83.59000      148.29800      183.10300
O         84.36400      147.33200      183.14100
C         81.87000      148.81000      184.84200
O         80.93700      149.53400      184.03600
C         81.70600      149.24300      186.28000
N         82.99700      148.69100      181.97700
C         83.19500      147.93500      180.74500
C         84.65800      147.94500      180.32600
O         85.23300      146.89900      179.99800
C         82.31900      148.50300      179.63300
C         80.85100      148.51900      179.96100
C         80.07000      149.20200      178.86600
N         80.00500      148.38000      177.66500
C         79.00000      147.56000      177.38100
N         79.01700      146.84500      176.26500
N         77.97700      147.45300      178.21700
N         85.27600      149.12500      180.32800
C         86.66200      149.23100      179.89700
C         87.58500      148.46500      180.82900
O         88.54800      147.83900      180.38000
C         87.06500      150.70000      179.81300
C         86.25400      151.48600      178.83400
N         85.74900      152.73600      179.11500
C         85.84700      151.18900      177.58000
C         85.07000      153.17800      178.07200
N         85.12000      152.26000      177.12500
N         87.30600      148.49200      182.13000
C         88.13700      147.75000      183.06700
C         88.01200      146.25600      182.83700
O         89.00700      145.53000      182.89800
C         87.75100      148.09600      184.49800
O         86.32500      148.10200      184.60800
C         88.29500      149.45600      184.87800
N         86.79900      145.77700      182.57000
C         86.64000      144.35600      182.29000
C         87.37500      143.96300      181.02000
O         88.03100      142.91500      180.97100
C         85.16200      144.01100      182.18900
C         84.48900      143.99900      183.55500
C         83.01300      144.31400      183.44000
C         84.70600      142.64900      184.20000
N         87.30100      144.80200      179.99000
C         87.99900      144.48800      178.74900
C         89.50900      144.52200      178.93800
O         90.22600      143.67900      178.39100
C         87.57200      145.45400      177.65100
C         86.11300      145.30200      177.28800
O         85.74500      145.64100      176.14400
O         85.33500      144.83600      178.14600
N         90.01300      145.48300      179.71300
C         91.43900      145.54200      179.97100
C         91.92900      144.39100      180.81900
O         93.04700      143.90700      180.62700
N         91.11200      143.94000      181.76800
C         91.46700      142.76000      182.53900
C         91.50700      141.52900      181.65200
O         92.39200      140.68100      181.79800
C         90.48000      142.56300      183.68600
N         90.55000      141.40600      180.73300
C         90.62300      140.33100      179.75300
C         91.90900      140.42400      178.94600
O         92.60200      139.41900      178.74500
C         89.40700      140.37400      178.83200
N         92.25000      141.63100      178.49500
C         93.48700      141.84900      177.75300
C         94.69400      141.35700      178.53700
O         95.48200      140.54400      178.04500
C         93.63700      143.33300      177.42400
S         95.14500      143.73700      176.53400
N         94.85000      141.84200      179.76500
C         95.99100      141.45300      180.58400
C         96.01000      139.95000      180.81400
O         96.94700      139.25800      180.40600
C         95.95000      142.19800      181.91600
C         96.35900      143.66700      181.87700
C         96.20700      144.29000      183.25000
C         97.78500      143.79900      181.38400
N         94.96800      139.42400      181.46100
C         94.94200      138.01300      181.82100
C         95.11600      137.10900      180.61500
O         95.55200      135.96200      180.75700
C         93.63700      137.68400      182.53700
C         93.50700      138.29900      183.92500
C         92.52800      137.49900      184.75300
C         94.85700      138.36500      184.61400
N         94.79100      137.59600      179.42300
C         95.01800      136.82800      178.21300
C         96.18300      137.36500      177.39900
O         96.41900      136.88700      176.28600
C         93.74900      136.79800      177.36600
C         92.54300      136.33900      178.14800
O         92.36400      135.14700      178.38600
N         91.70300      137.28300      178.55000
N         96.92100      138.33700      177.92500
C         98.06700      138.86400      177.20000
C         99.13400      137.79300      177.08100
O         99.57500      137.23100      178.08800
C         98.62800      140.09400      177.90700
O         99.86700      140.47400      177.33800
N         99.55400      137.51500      175.84800
C        100.51000      136.43800      175.63200
C        101.85000      136.74400      176.28000
O        102.45800      135.86400      176.90100
C        100.69400      136.18300      174.14000
C        101.41200      134.88400      173.86700
O        101.40000      133.97500      174.69400
N        102.05600      134.79200      172.71000
N        102.32200      137.98400      176.16200
C        103.64800      138.30100      176.67000
C        103.73300      138.20100      178.18500
O        104.82700      137.99000      178.71800
C        104.06500      139.69700      176.22300
C        103.28500      140.81300      176.87400
C        104.01400      142.11900      176.68800
C        104.37200      142.33200      175.23000
N        103.17200      142.54200      174.38500
N        102.61300      138.33700      178.89000
C        102.60900      138.20900      180.33700
C        102.08000      136.87200      180.82200
O        102.36400      136.49400      181.96200
C        101.77400      139.32700      180.97200
C        102.24300      140.71100      180.61600
C        103.49400      141.15500      180.99900
C        101.43200      141.57400      179.89800
C        103.92700      142.42300      180.67600
C        101.85600      142.84200      179.57100
C        103.10400      143.26200      179.96300
O        103.53600      144.52500      179.64100
N        101.31100      136.16200      180.00500
C        100.75500      134.86300      180.38000
C        100.71300      133.96800      179.15400
O         99.65500      133.75000      178.55500
C         99.36600      135.02100      180.99500
C         99.30900      136.01900      182.10400
C         99.02000      137.34100      181.84700
C         99.55200      135.63500      183.40300
C         98.97000      138.26100      182.86500
C         99.49900      136.54800      184.42500
C         99.20900      137.86500      184.15500
N        101.86200      133.43400      178.74100
C        101.84400      132.47600      177.62600
C        101.13000      131.18800      177.98100
O        100.34100      130.67100      177.18000
C        103.33400      132.24600      177.33700
C        104.05600      133.33200      178.05900
C        103.22100      133.67600      179.23800
N        101.38600      130.65400      179.16900
C        100.77500      129.42200      179.63200
C         99.97200      129.68500      180.89700
O        100.05700      130.75200      181.50900
C        101.83300      128.34600      179.89800
O        101.37100      127.42700      180.87100
N         99.17900      128.68800      181.28200
C         98.42000      128.73000      182.52300
C         98.90800      127.69100      183.52300
O         98.15100      127.28400      184.41000
C         96.93200      128.54200      182.23800
C         96.47500      129.20500      180.95900
C         95.07000      128.77600      180.59800
N         94.06800      129.50600      181.36800
C         93.46800      129.03200      182.45300
N         93.76600      127.82100      182.90000
N         92.56800      129.76600      183.09000
N        100.15800      127.25000      183.39500
C        100.71000      126.24300      184.29100
C        101.88100      126.82800      185.06800
O        102.22600      126.33900      186.14900
C        101.13500      124.98200      183.51700
C        100.08100      124.61700      182.48900
C        102.48600      125.18400      182.85200
N        102.49800      127.88100      184.53300
C        103.67900      128.48000      185.15400
C        103.70200      129.96200      184.80100
O        104.13900      130.33800      183.71100
C        104.95500      127.78700      184.69400
O        105.46400      128.39900      183.52300
N        103.24000      130.79500      185.72500
C        103.25600      132.24100      185.55900
C        104.49600      132.78000      186.25200
O        104.77400      132.43700      187.40600
C        101.98200      132.88500      186.12100
C        101.68400      132.32500      187.51100
C        100.80900      132.63900      185.18800
C        100.89000      133.25800      188.37100
N        105.25300      133.60500      185.53900
C        106.44400      134.20500      186.11600
C        106.05700      135.15900      187.23200
O        105.01300      135.81400      187.17700
C        107.24100      134.94800      185.04800
C        107.61900      134.09600      183.85600
C        107.82500      134.95200      182.62500
C        106.58000      135.76500      182.31800
N        105.36600      134.91100      182.19200
N        106.90200      135.22500      188.26100
C        106.67100      136.19100      189.32400
C        106.84400      137.61400      188.82700
O        106.45500      138.55600      189.52400
C        107.60200      135.91700      190.50100
C        107.53700      134.48600      191.01500
C        106.11300      133.99000      191.20200
O        105.66800      133.14100      190.40500
O        105.43800      134.44200      192.15400
N        107.41000      137.79100      187.63500
C        107.41900      139.09100      186.98400
C        106.05000      139.48700      186.45300
O        105.94500      140.50800      185.76800
C        108.43200      139.09600      185.84300
O        107.84000      138.63000      184.64600
N        105.01100      138.70600      186.74200
C        103.65900      139.00000      186.29000
C        102.64100      139.09400      187.41200
O        101.61000      139.75100      187.22500
C        103.18500      137.93400      185.29300
O        103.54100      136.63800      185.73900
N        102.88900      138.47500      188.56600
C        101.92600      138.47500      189.65300
C        101.67900      139.86300      190.21700
O        100.71600      140.05300      190.96500
C        102.39500      137.52000      190.76700
C        102.30400      136.08300      190.29500
C        103.81100      137.86000      191.18000
N        102.52800      140.83700      189.88600
C        102.25900      142.21500      190.28400
C        101.02300      142.75700      189.58000
O        100.28100      143.56900      190.14600
C        103.47200      143.09400      189.98700
N        100.78600      142.31400      188.34400
C         99.61900      142.76800      187.59900
C         98.32600      142.38600      188.30000
O         97.31100      143.07700      188.15600
C         99.64800      142.18100      186.19000
C        100.96400      142.38700      185.47000
C        101.31400      143.86200      185.38200
C        102.56400      144.08600      184.55100
N        102.36400      143.67500      183.13800
N         98.34000      141.28400      189.04400
C         97.13800      140.85400      189.74100
C         96.70700      141.88800      190.76600
O         95.50900      142.12400      190.96200
C         97.39200      139.50500      190.40000
C         98.02200      138.48100      189.45900
C         98.13700      137.14500      190.15400
C         97.20400      138.35300      188.18800
N         97.67400      142.52100      191.42700
C         97.34000      143.60700      192.32900
C         96.64500      144.74300      191.60900
O         95.63200      145.26500      192.08000
N         97.17300      145.12700      190.44700
C         96.53700      146.16900      189.65300
C         95.10600      145.79300      189.30900
O         94.18200      146.60200      189.45200
C         97.33200      146.41300      188.37500
O         97.02000      145.42600      187.40900
N         94.90200      144.55900      188.85600
C         93.57300      144.21900      188.37200
C         92.58100      144.12200      189.52300
O         91.43100      144.53900      189.37400
C         93.59900      142.93800      187.52000
C         94.61700      143.06600      186.41200
C         93.89200      141.73300      188.36000
N         92.99100      143.61600      190.69300
C         92.04100      143.58000      191.80300
C         91.77700      144.98300      192.33100
O         90.67000      145.28200      192.80200
C         92.53300      142.67700      192.92700
S         94.15900      143.06200      193.54600
N         92.78200      145.85700      192.26700
C         92.55000      147.26500      192.55600
C         91.49800      147.84400      191.62400
O         90.65700      148.64400      192.04500
C         93.86200      148.03300      192.43900
C         93.70900      149.52700      192.32600
C         95.01500      150.15300      191.87200
N         96.17400      149.40300      192.35400
C         97.18200      149.00200      191.58700
N         97.18700      149.28300      190.29200
N         98.19200      148.32400      192.11500
N         91.52600      147.44400      190.35300
C         90.48500      147.87400      189.42400
C         89.12800      147.29400      189.80800
O         88.10600      147.98400      189.74000
C         90.84800      147.46600      187.99900
C         92.16300      148.03500      187.50700
C         92.22400      148.04600      185.98700
N         93.58500      148.19500      185.47700
C         94.29100      149.32200      185.52100
N         93.77500      150.42000      186.05800
N         95.51900      149.35000      185.02700
N         89.10500      146.02400      190.19900
C         87.85900      145.37000      190.58900
C         87.19700      146.10700      191.74100
O         85.97800      146.33500      191.74300
C         88.13000      143.89900      190.94800
C         88.80900      143.18300      189.78700
C         86.87600      143.21500      191.41800
C         88.08600      143.33200      188.49100
N         87.98200      146.47800      192.74800
C         87.36300      147.09200      193.90900
C         86.74100      148.44200      193.58600
O         85.84600      148.87500      194.31100
C         88.35100      147.24400      195.05800
C         87.62300      147.44900      196.36000
C         86.98700      146.39000      196.99100
C         87.52500      148.70600      196.93200
C         86.30300      146.57300      198.17100
C         86.84200      148.90000      198.10900
C         86.23300      147.83100      198.72500
O         85.55000      148.02300      199.90200
N         87.16100      149.10500      192.50800
C         86.48000      150.33300      192.10800
C         85.05300      150.03900      191.66800
O         84.10700      150.72700      192.07500
C         87.24200      151.02500      190.98100
C         88.74300      150.86800      191.02800
C         89.35800      151.53200      192.24000
N         90.80500      151.65600      192.09300
C         91.41000      152.68900      191.51800
N         90.69500      153.69800      191.04300
N         92.73200      152.71800      191.42400
N         84.89000      149.03600      190.80200
C         83.55900      148.56200      190.43300
C         82.75700      148.25000      191.68400
O         81.58800      148.63400      191.81800
C         83.66700      147.32300      189.52700
C         84.36800      147.67100      188.21900
C         82.29600      146.74100      189.25200
C         84.19700      146.62100      187.14700
N         83.38100      147.53300      192.61700
C         82.65900      147.11200      193.81100
C         82.23500      148.30600      194.65200
O         81.13600      148.32000      195.21300
C         83.51400      146.15100      194.62600
C         83.37200      144.73100      194.20100
C         82.78100      144.42500      192.99400
C         83.79400      143.70200      195.01600
C         82.63700      143.12300      192.59500
C         83.64700      142.39600      194.62400
C         83.06900      142.10500      193.41000
N         83.09300      149.31700      194.75100
C         82.74800      150.51500      195.50200
C         81.58500      151.24500      194.85000
O         80.64900      151.67600      195.53400
C         83.96300      151.43100      195.60600
O         84.49800      151.68400      194.32200
N         81.63200      151.40500      193.52600
C         80.52000      152.05400      192.84000
C         79.22600      151.28800      193.06800
O         78.16900      151.88900      193.29400
C         80.80400      152.18100      191.34400
C         79.66800      152.76300      190.56100
N         79.20500      154.04600      190.76100
C         78.90000      152.23600      189.57900
C         78.20200      154.28500      189.93500
N         77.99900      153.20300      189.20600
N         79.29600      149.95900      193.03100
C         78.10200      149.15500      193.25600
C         77.57100      149.35700      194.66700
O         76.38500      149.64100      194.86300
C         78.40800      147.68100      193.00100
N         78.44500      149.22900      195.66300
C         78.02600      149.33500      197.05200
C         77.51500      150.72300      197.39800
O         76.68700      150.85600      198.30400
C         79.18900      148.96800      197.96900
C         78.86100      149.00700      199.44000
C         78.34300      147.89600      200.08200
C         79.08000      150.15400      200.18900
C         78.04900      147.92400      201.42600
C         78.78800      150.19300      201.53400
C         78.27200      149.07600      202.14800
O         77.97900      149.11600      203.49000
N         77.97700      151.75600      196.69800
C         77.58800      153.11800      197.03000
C         76.37100      153.59900      196.25100
O         75.38600      154.02900      196.85600
C         78.76800      154.06600      196.80100
C         79.66800      154.20100      197.99300
C         79.33300      153.60600      199.19600
C         80.84400      154.92500      197.91400
C         80.15300      153.72700      200.29500
C         81.66700      155.04800      199.01200
C         81.32100      154.44800      200.20300
N         76.41100      153.53500      194.92000
C         75.32900      154.07300      194.10600
C         74.16000      153.11100      193.95700
O         73.01400      153.55700      193.82500
C         75.84500      154.44200      192.71300
C         76.80100      155.59100      192.70500
N         77.80800      155.72700      193.63500
C         76.91200      156.65300      191.87400
C         78.49200      156.82800      193.38400
N         77.96900      157.40800      192.32000
N         74.41800      151.80600      193.97800
C         73.42700      150.78300      193.66300
C         73.45400      149.68000      194.71100
O         73.57200      148.49100      194.40600
C         73.67100      150.24000      192.26300
C         73.96300      151.30900      191.25700
N         72.97200      151.99600      190.59500
C         75.13500      151.82900      190.82300
C         73.52100      152.88200      189.78400
N         74.83300      152.80200      189.90400
N         73.37000      150.09100      195.97900
C         73.47700      149.16500      197.10400
C         72.54200      147.96900      196.96800
O         72.93000      146.83200      197.26200
C         73.18600      149.91300      198.40400
C         73.23400      149.05300      199.65300
C         74.52400      148.25000      199.75500
N         74.67300      147.62100      201.06700
C         74.92600      148.28400      202.19300
N         75.04600      147.62700      203.33800
N         75.06900      149.60200      202.17700
N         71.30500      148.20300      196.52500
C         70.30000      147.14500      196.54300
C         70.63700      146.02600      195.56200
O         70.57900      144.84300      195.91800
C         68.91300      147.73400      196.26100
C         68.66700      148.24800      194.84100
C         69.61000      149.36700      194.42600
O         70.23700      150.01700      195.26300
N         69.71700      149.59100      193.12200
N         71.00600      146.37100      194.32700
C         71.30000      145.33600      193.34100
C         72.62300      144.66100      193.66600
O         72.80700      143.46300      193.41700
C         71.28600      145.92800      191.91900
C         71.60900      144.85100      190.88000
C         72.25700      147.07900      191.81200
C         70.90800      145.05300      189.55300
N         73.56200      145.41500      194.23800
C         74.78100      144.80100      194.74600
C         74.45600      143.73000      195.77600
O         74.99700      142.62100      195.72100
C         75.69400      145.86400      195.35200
C         76.53500      145.35800      196.48500
C         77.68400      144.62900      196.23800
C         76.17400      145.60700      197.79900
C         78.45900      144.15900      197.27900
C         76.94400      145.13500      198.84200
C         78.08800      144.41300      198.58300
N         73.57200      144.04700      196.72400
C         73.19700      143.07300      197.74100
C         72.45800      141.89600      197.12700
O         72.62600      140.75400      197.56300
C         72.34700      143.74100      198.81900
C         73.17400      144.57900      199.77300
O         74.28900      144.14300      200.12700
O         72.71500      145.67200      200.16500
N         71.63000      142.15500      196.11400
C         70.96600      141.05900      195.41400
C         71.98300      140.10600      194.80500
O         71.89600      138.88600      194.98800
C         70.03700      141.60800      194.33300
C         68.87300      142.41900      194.86400
C         68.44400      143.51200      193.91000
O         68.41900      143.25500      192.68800
O         68.13500      144.62800      194.37800
N         72.96300      140.65100      194.08700
C         73.97600      139.81500      193.45500
C         74.84000      139.11200      194.49500
O         75.30100      137.98600      194.27000
C         74.83500      140.66200      192.52000
C         75.61300      139.85700      191.51000
C         74.98200      138.91700      190.71000
C         76.97800      140.04000      191.35100
C         75.69000      138.18000      189.78300
C         77.69400      139.30700      190.42600
C         77.04600      138.37900      189.64400
O         77.75800      137.64800      188.72300
N         75.07000      139.75700      195.63900
C         75.85300      139.12400      196.69200
C         75.07400      137.99200      197.34600
O         75.66000      136.99400      197.77900
C         76.27800      140.16000      197.72800
C         77.40500      139.69900      198.63800
C         78.76700      139.72900      197.96600
O         79.77400      139.47600      198.65900
O         78.83900      140.00400      196.75100
N         73.75400      138.13700      197.43700
C         72.91400      137.02600      197.86200
C         72.98000      135.89300      196.85000
O         73.02300      134.71400      197.21900
C         71.47700      137.50500      198.05300
C         71.33400      138.44500      199.22600
O         72.32700      138.93100      199.76600
N         70.09800      138.71100      199.62600
N         72.98600      136.23700      195.56200
C         73.20600      135.22800      194.53200
C         74.57200      134.58000      194.69800
O         74.70400      133.35300      194.63900
C         73.07100      135.85500      193.14700
C         71.73700      136.53100      192.91000
C         71.69400      137.29500      191.60400
O         71.72100      136.64800      190.53500
O         71.63500      138.54100      191.64600
N         75.60300      135.39200      194.91100
C         76.93600      134.86700      195.16600
C         77.72800      135.89000      195.96200
O         77.86700      137.04100      195.53900
C         77.65800      134.52600      193.86300
O         79.05900      134.38000      194.12100
C         77.43500      135.61400      192.82700
N         78.25600      135.46000      197.10800
C         78.95800      136.34800      198.03300
C         80.33000      136.72500      197.47300
O         81.38200      136.35100      197.98900
C         79.06800      135.68700      199.39900
C         77.79300      135.04800      199.85700
C         76.83600      135.79100      200.52000
C         77.54200      133.71100      199.60400
C         75.65600      135.21100      200.93700
C         76.36200      133.12700      200.01500
C         75.41900      133.87700      200.68400
N         80.29200      137.49200      196.38300
C         81.52000      137.86600      195.69400
C         82.39300      138.77000      196.54800
O         83.58700      138.50500      196.71400
C         81.19400      138.54900      194.37000
C         80.83300      137.62100      193.21800
C         81.25500      138.25700      191.91200
C         81.51300      136.28400      193.40300
N         81.82900      139.86000      197.06700
C         82.63900      140.81800      197.80900
C         83.26400      140.17300      199.03800
O         84.44800      140.38400      199.32400
C         81.79000      142.02500      198.20000
S         82.72800      143.55300      198.37700
N         82.48600      139.37200      199.77200
C         83.04400      138.63500      200.90100
C         84.15100      137.69900      200.44100
O         85.23000      137.64200      201.05400
C         81.94700      137.84000      201.60700
C         80.75000      138.65500      201.98400
N         80.75900      140.03300      202.00300
C         79.50200      138.28300      202.35100
C         79.56900      140.47500      202.36900
N         78.78700      139.43200      202.58600
N         83.89500      136.95100      199.36600
C         84.89700      136.02700      198.85700
C         86.19500      136.75100      198.55300
O         87.27600      136.29700      198.93500
C         84.38600      135.31700      197.60600
C         85.51500      134.79700      196.73000
C         85.26200      133.39000      196.23300
N         84.45700      133.37200      195.02000
C         83.13800      133.22800      195.00600
N         82.47100      133.09000      196.14400
N         82.48700      133.22000      193.85400
N         86.10500      137.90100      197.89200
C         87.31300      138.56800      197.43100
C         88.02000      139.26900      198.57100
O         89.24600      139.37300      198.55800
C         87.00100      139.57300      196.32500
C         86.25000      138.99300      195.16300
C         86.13700      137.62600      194.99200
C         85.65500      139.82400      194.23600
C         85.43100      137.10200      193.93400
C         84.95200      139.30500      193.16600
C         84.84400      137.94100      193.01300
N         87.27400      139.75700      199.56200
C         87.92600      140.32500      200.73400
C         88.73400      139.26400      201.46400
O         89.90300      139.48700      201.80600
C         86.89200      140.94900      201.66500
O         85.80300      140.03800      201.85000
C         86.35800      142.21400      201.05200
N         88.13500      138.09200      201.69100
C         88.88500      137.00900      202.31800
C         90.04500      136.57200      201.43600
O         91.13400      136.27000      201.93100
C         87.96200      135.83200      202.61700
C         88.55500      134.82000      203.57800
C         87.60100      133.66700      203.81700
C         88.05800      132.80900      204.97800
N         88.00400      133.55200      206.26400
N         89.84100      136.57500      200.12200
C         90.89400      136.18700      199.19500
C         92.08500      137.12700      199.27600
O         93.23300      136.68200      199.39800
C         90.33700      136.16400      197.77800
C         91.38500      136.22400      196.71700
C         92.06500      135.08500      196.33500
C         91.68300      137.41900      196.09000
C         93.02600      135.13600      195.35100
C         92.64400      137.47600      195.11000
C         93.31600      136.33300      194.73900
N         91.83200      138.42900      199.18200
C         92.91100      139.40300      199.23700
C         93.61000      139.33400      200.58200
O         94.84100      139.29900      200.65200
C         92.37200      140.81300      198.94300
C         93.46700      141.82600      199.08500
C         91.81600      140.86400      197.53900
N         92.84400      139.26000      201.67200
C         93.47700      139.12300      202.97800
C         94.29500      137.83900      203.05700
O         95.25700      137.75300      203.82900
C         92.42100      139.18300      204.08000
C         91.82900      140.57300      204.27700
S         93.10900      141.83300      204.46800
C         92.95900      142.72400      202.92200
N         93.93200      136.83300      202.25900
C         94.73900      135.62200      202.19700
C         96.03900      135.86400      201.45100
O         97.09200      135.34200      201.83300
C         93.95500      134.50000      201.52300
C         94.70900      133.18200      201.43700
C         93.82800      132.08300      200.87400
C         93.09400      131.35700      201.98200
N         91.95200      132.15800      202.50100
N         95.99200      136.64700      200.38200
C         97.17100      136.84300      199.55300
C         97.71000      138.25700      199.57600
O         98.74000      138.51400      198.95400
C         96.86700      136.43000      198.12100
C         96.52900      134.96800      198.06700
C         97.48900      134.01000      198.35200
C         95.24500      134.54100      197.78800
C         97.18500      132.66300      198.32700
C         94.92700      133.19700      197.75800
C         95.89700      132.25800      198.02800
O         95.59200      130.93500      198.00900
N         97.03100      139.17500      200.25000
C         97.54200      140.52100      200.48300
C         97.87000      141.23300      199.17500
O         99.02200      141.56300      198.89300
C         98.75200      140.50100      201.40600
C         99.12600      141.88300      201.87600
O        100.25300      142.33800      201.69000
N         98.16400      142.57200      202.48600
N         96.84200      141.44400      198.35600
C         97.00100      142.24500      197.14800
C         96.59100      143.69400      197.38000
O         97.08900      144.59900      196.70800
C         96.18700      141.63300      196.01200
C         96.72100      140.32000      195.45100
C         95.89500      139.89700      194.25500
C         98.18000      140.50000      195.07800
N         95.68300      143.93600      198.31500
C         95.15100      145.26700      198.54900
C         95.08400      145.51500      200.04800
O         94.97800      144.58400      200.84900
C         93.76600      145.43200      197.91300
C         93.37300      146.86800      197.62600
S         91.79100      146.98000      196.77100
C         90.72900      146.11200      197.92100
N         95.15500      146.78700      200.41900
C         95.11600      147.14900      201.82800
C         93.76900      146.79500      202.43700
O         92.73100      146.85600      201.77300
C         95.36900      148.64100      202.00500
O         94.14700      149.34300      202.16000
N         93.78900      146.43200      203.71900
C         92.53600      146.23600      204.43400
C         91.79800      147.55400      204.62200
O         90.56400      147.57000      204.69200
C         92.79800      145.57300      205.78400
C         91.56100      144.97000      206.42700
C         90.66800      144.29400      205.39600
C         89.59800      143.45100      206.07000
N         90.14200      142.16900      206.59100
N         92.53300      148.66700      204.70500
C         91.88400      149.97200      204.78000
C         91.15300      150.30000      203.48700
O         90.20700      151.09600      203.49300
C         92.91200      151.06000      205.08900
C         93.98000      150.60200      206.06300
O         93.66900      149.77500      206.94400
O         95.13500      151.06400      205.94100
N         91.58200      149.70900      202.36700
C         90.88200      149.91500      201.10400
C         89.48200      149.32500      201.13500
O         88.57900      149.83700      200.46400
C         91.68400      149.31300      199.95200
C         92.75800      150.24600      199.44500
O         92.57200      151.46100      199.41500
N         93.89400      149.68700      199.05200
N         89.28100      148.25600      201.89900
C         87.96400      147.64700      201.99300
C         87.01600      148.53700      202.78600
O         87.32500      148.95500      203.90600
C         88.05900      146.27300      202.64900
C         86.70500      145.73700      203.11600
C         85.79000      145.50100      201.92700
C         86.86500      144.47600      203.94500
N         85.85300      148.82500      202.19900
C         84.79300      149.55600      202.88100
C         83.49800      148.76500      202.95800
O         82.57300      149.18000      203.65800
C         84.54300      150.92700      202.21900
C         83.85100      150.76300      200.86400
C         85.85100      151.69200      202.06200
C         82.36500      151.05000      200.88800
N         83.40000      147.63900      202.26000
C         82.19500      146.81600      202.24500
C         82.18500      145.90600      203.46700
O         83.20400      145.27100      203.77400
C         82.11100      145.99600      200.95000
C         80.79800      145.23300      200.88700
C         82.27600      146.90200      199.74100
N         81.07400      145.80900      204.19100
C         81.00800      144.86200      205.30600
C         80.99900      143.42700      204.81000
O         80.57300      143.13000      203.69100
C         79.68800      145.21900      205.99700
C         78.86400      145.83200      204.91600
C         79.83800      146.60000      204.07000
N         81.48200      142.53300      205.66200
C         81.52100      141.11600      205.33700
C         80.40500      140.37500      206.06100
O         79.41600      140.97900      206.47700
C         82.87300      140.52900      205.69400
N        143.57700      160.97700      187.26300
C        142.69100      162.07800      187.60600
C        141.30000      161.85100      187.03100
O        140.32200      161.78000      187.76600
C        143.26200      163.40500      187.10500
C        144.00800      163.30600      185.78800
C        144.20100      164.65200      185.13200
O        143.78600      165.66500      185.72700
O        144.76500      164.70100      184.02200
N        141.22100      161.73600      185.71200
C        139.96600      161.54500      185.00600
C        139.90000      160.12400      184.47500
O        140.84400      159.64500      183.84400
C        139.83300      162.54800      183.86300
C        138.67400      162.28800      182.95300
C        137.47100      162.91100      183.16300
C        138.79900      161.44500      181.87200
C        136.41900      162.68000      182.32700
C        137.74500      161.21700      181.03900
C        136.55800      161.83200      181.26500
N        138.77700      159.45800      184.72400
C        138.60900      158.04100      184.41700
C        137.37100      157.90800      183.54400
O        136.25400      157.80300      184.05100
C        138.48800      157.21600      185.68900
C        139.66300      157.33900      186.65500
C        139.71500      158.68000      187.36900
O        140.75500      158.98500      187.99000
O        138.72200      159.43300      187.29600
N        137.57100      157.90200      182.23400
C        136.45500      157.91600      181.30000
C        135.69000      156.61100      181.40300
O        136.15800      155.57100      180.93700
C        136.96300      158.13600      179.88300
C        135.90900      158.03600      178.81600
C        135.12700      159.12100      178.48700
C        135.71300      156.86100      178.12400
C        134.17400      159.03300      177.51000
C        134.76400      156.76700      177.14800
C        133.99900      157.85400      176.84500
O        133.05000      157.75200      175.86600
N        134.52000      156.66500      182.01500
C        133.61100      155.53800      182.07400
C        132.31400      155.92000      181.38500
O        132.10800      157.06800      180.99600
C        133.34800      155.11300      183.52100
N        131.42400      154.94300      181.24100
C        130.15000      155.21400      180.59500
C        129.28700      156.17600      181.38600
O        128.28100      156.64800      180.85400
C        129.38800      153.91600      180.37300
C        130.29600      152.78000      179.98800
O        131.18700      152.44500      180.79300
O        130.14000      152.23500      178.87700
N        129.65000      156.48000      182.62500
C        128.87400      157.38900      183.45000
C        129.65900      157.70000      184.71000
O        130.39200      156.85200      185.22100
C        127.52400      156.78600      183.81800
O        126.91100      157.59200      184.82300
C        127.71000      155.39000      184.35300
N        129.48900      158.91700      185.21000
C        130.14900      159.31900      186.43900
C        129.66500      158.45300      187.60000
O        128.72500      157.66800      187.47700
C        129.88000      160.79400      186.72000
C        130.88300      161.39600      187.66800
O        131.49800      160.63700      188.43900
O        131.05500      162.63100      187.64500
N        130.32900      158.60000      188.74200
C        129.95300      157.82600      189.91500
C        128.53900      158.17600      190.35100
O        128.04900      159.28200      190.11900
C        130.92900      158.07600      191.05500
C        131.13400      159.53200      191.36400
C        132.22800      159.70900      192.38500
C        133.47200      158.94200      191.98100
N        134.02300      159.43600      190.69500
N        127.89000      157.21600      191.00800
C        126.45300      157.29900      191.24900
C        126.07000      158.56200      192.01000
O        125.02900      159.16900      191.73200
C        125.99900      156.05000      191.99700
C        124.90400      156.27600      192.96000
C        123.57000      156.16600      192.72300
C        125.04100      156.63100      194.33700
N        122.86400      156.44000      193.86600
C        123.74600      156.73100      194.87200
C        126.13500      156.87800      195.16900
C        123.51400      157.07000      196.19800
C        125.90200      157.21500      196.48400
C        124.60400      157.30900      196.98600
N        126.89700      158.98000      192.96600
C        126.56400      160.16800      193.74100
C        126.54000      161.40600      192.86200
O        125.63700      162.24300      192.97600
C        127.55800      160.34500      194.88300
N        127.52200      161.53700      191.97400
C        127.53800      162.67400      191.06700
C        126.32300      162.66100      190.15400
O        125.71600      163.70800      189.90600
C        128.82400      162.67600      190.24800
N        125.95100      161.48500      189.64900
C        124.75500      161.37100      188.82300
C        123.53600      161.89100      189.56100
O        122.83900      162.79000      189.08400
C        124.53300      159.92000      188.41000
C        125.71600      159.27500      187.75000
C        125.97400      159.82800      186.37900
O        125.10200      160.54200      185.85100
O        127.04500      159.53200      185.81600
N        123.26500      161.33300      190.73800
C        122.09300      161.76100      191.48800
C        122.12700      163.25500      191.76600
O        121.09100      163.92300      191.71700
C        121.98900      160.98300      192.79100
C        120.87900      159.94600      192.75900
C        121.17900      158.90000      191.70900
C        120.72700      159.31700      194.12000
N        123.30400      163.80300      192.05500
C        123.36900      165.24000      192.27200
C        123.09500      166.00700      190.99100
O        122.63900      167.15200      191.04300
C        124.73000      165.63000      192.83200
O        125.76200      165.01000      192.09600
N        123.35800      165.39900      189.83700
C        123.21700      166.08300      188.56000
C        121.86400      165.85700      187.92400
O        121.76400      165.81500      186.69500
C        124.32200      165.65200      187.60000
C        125.64200      166.35000      187.83500
C        126.64700      166.06300      186.74300
O        126.36800      165.18900      185.89400
O        127.71400      166.71300      186.73100
N        120.82300      165.68900      188.72200
C        119.46200      165.61700      188.21700
C        118.60400      166.77600      188.67700
O        117.83300      167.32000      187.89100
C        118.80900      164.31000      188.65500
C        117.34200      164.17200      188.28600
C        117.21500      164.03500      186.79800
C        116.75000      162.98000      188.98900
N        118.73400      167.17400      189.93300
C        117.95800      168.27900      190.46100
C        118.67100      169.59500      190.20200
O        119.88300      169.70600      190.40000
C        117.73200      168.09800      191.95700
C        117.33800      166.70000      192.34100
C        116.08900      166.20600      192.02600
C        118.21100      165.87800      193.02500
C        115.72200      164.93800      192.37400
C        117.85100      164.60600      193.37900
C        116.60400      164.14200      193.04900
O        116.23100      162.87000      193.39600
N        117.91600      170.59000      189.76200
C        118.44800      171.93700      189.68800
C        118.69100      172.47700      191.08700
O        118.04200      172.07300      192.05000
C        117.47200      172.84700      188.96000
O        116.54500      173.38600      189.88200
N        119.62600      173.42000      191.19600
C        119.80000      174.11400      192.46500
C        118.60100      174.97900      192.81100
O        118.58600      175.59200      193.88200
C        121.05900      174.98100      192.44200
C        122.35500      174.21400      192.55700
C        122.36000      172.83500      192.67900
C        123.57300      174.87200      192.55700
C        123.54100      172.13500      192.78500
C        124.75800      174.17900      192.66600
C        124.73400      172.81200      192.77900
O        125.91300      172.11600      192.88800
N        117.60700      175.04800      191.93100
C        116.40200      175.82800      192.16600
C        115.30100      175.00500      192.81500
O        114.56900      175.51500      193.66900
C        115.90000      176.40900      190.84800
O        116.92500      177.22100      190.26900
C        114.66900      177.24500      191.07900
N        115.17700      173.73200      192.44200
C        114.12900      172.86700      192.96600
C        114.53700      172.16100      194.25200
O        114.01700      171.08200      194.55600
C        113.70400      171.85400      191.90400
C        114.72300      170.77500      191.60200
C        114.13700      169.64200      190.78700
O        113.71700      169.88400      189.63800
O        114.08500      168.50800      191.29700
N        115.46000      172.73800      195.01000
C        115.83400      172.21700      196.30300
C        114.66400      171.95600      197.23200
O        114.40400      170.81300      197.62400
N        113.91900      173.01200      197.59200
C        112.87600      172.87100      198.61800
C        111.88600      171.75200      198.34900
O        111.23100      171.26600      199.27800
C        112.17900      174.23800      198.59400
C        112.56600      174.84500      197.29500
C        113.95400      174.38100      197.06000
N        111.78200      171.33700      197.08500
C        110.92300      170.21300      196.73300
C        111.10100      169.05400      197.69700
O        110.11800      168.44100      198.13000
C        111.21800      169.75900      195.30800
C        110.89100      170.79600      194.26400
C        109.41900      170.83600      193.94400
O        108.77000      169.77500      194.03100
O        108.90900      171.92500      193.61200
N        112.35000      168.75900      198.06400
C        112.62100      167.65300      198.97400
C        111.73400      167.72700      200.20200
O        111.00100      166.78000      200.51000
C        114.09100      167.66100      199.37300
C        115.01000      167.30200      198.25700
C        114.54100      166.60700      197.16400
C        116.33900      167.65900      198.29600
C        115.37700      166.27400      196.13600
C        117.18100      167.32800      197.26900
C        116.69800      166.63500      196.18700
N        111.76600      168.86600      200.89600
C        110.87800      169.08400      202.03000
C        109.46400      168.64700      201.69400
O        108.91400      167.73300      202.32100
C        110.89400      170.55800      202.42400
C        112.15700      171.07500      203.09500
C        112.07700      172.58100      203.25900
C        112.33500      170.38600      204.43400
N        108.88600      169.26900      200.66300
C        107.52300      168.95000      200.26300
C        107.32600      167.45000      200.18500
O        106.40800      166.90200      200.80600
C        107.20400      169.60400      198.92200
C        107.04800      171.10500      198.99900
S        105.98800      171.74200      197.69100
C        104.45300      170.89800      198.06400
N        108.22900      166.76500      199.48000
C        108.11200      165.32100      199.32200
C        107.86100      164.64800      200.66000
O        106.83500      163.98400      200.84900
C        109.36700      164.76600      198.66600
C        109.43100      165.08200      197.20100
O        109.04800      164.27000      196.36600
N        109.90300      166.27400      196.87600
N        108.75800      164.85500      201.62200
C        108.53300      164.27500      202.93800
C        107.21300      164.76100      203.50700
O        106.32300      163.96100      203.82000
C        109.68300      164.61700      203.87700
C        109.74000      163.70100      205.07100
C        111.00300      163.90600      205.86000
N        111.07000      165.25000      206.41200
C        112.09800      165.71100      207.11300
N        112.07800      166.95100      207.58100
N        113.14600      164.93200      207.34400
N        107.04000      166.08200      203.57000
C        105.81900      166.66200      204.10400
C        104.58500      166.18600      203.36700
O        103.47300      166.39300      203.86000
C        105.90500      168.18100      204.05900
C        106.97700      168.73200      204.96900
C        107.36600      170.13700      204.57900
C        108.66600      170.53300      205.24700
N        109.12500      171.87700      204.81000
N        104.74700      165.55800      202.20800
C        103.62600      164.86400      201.59800
C        103.57100      163.42400      202.09000
O        102.63300      163.03600      202.79200
C        103.74500      164.92800      200.07500
S        103.64500      166.61200      199.42000
N        104.61700      162.65000      201.80100
C        104.58300      161.22400      202.09800
C        104.27000      160.97400      203.55900
O        103.30600      160.26900      203.88400
C        105.91500      160.58000      201.73600
C        106.15300      159.26700      202.41400
C        105.59000      158.11400      201.91700
C        106.95000      159.18500      203.53500
C        105.81000      156.90900      202.52500
C        107.17200      157.98100      204.14600
C        106.60300      156.84100      203.64100
N        105.06900      161.56300      204.45200
C        104.84100      161.41100      205.88200
C        103.36900      161.54700      206.22500
O        102.79500      160.65900      206.86600
C        105.66000      162.44000      206.65800
C        107.09600      162.02200      206.91000
C        107.81500      162.95500      207.86500
O        107.30200      164.06600      208.11200
O        108.89500      162.57800      208.36600
N        102.72500      162.61900      205.75700
C        101.34600      162.85300      206.16400
C        100.47400      161.65800      205.80100
O         99.79200      161.09400      206.66500
C        100.82200      164.16500      205.56600
C        100.08300      164.08800      204.24100
C        100.12300      165.39800      203.48000
O        100.72100      166.36400      203.99400
O         99.56300      165.46100      202.36600
N        100.56800      161.18500      204.55500
C         99.78500      160.01600      204.17800
C        100.21400      158.80300      204.98200
O         99.36900      158.03100      205.45100
C         99.92400      159.73000      202.69100
C         99.49100      158.32800      202.34000
O         98.27000      158.07000      202.32800
O        100.36900      157.47300      202.10700
N        101.52500      158.62500      205.15000
C        102.02100      157.59300      206.04700
C        101.29300      157.65200      207.37500
O        100.71900      156.65200      207.82300
C        103.52300      157.77200      206.24800
C        104.19100      156.61500      206.91900
C        103.89600      155.32200      206.55000
C        105.13500      156.82500      207.90400
C        104.51900      154.25900      207.15700
C        105.76000      155.76700      208.51600
C        105.45200      154.48100      208.14200
N        101.24100      158.84400      207.97500
C        100.60900      159.01100      209.27600
C         99.20100      158.43700      209.29000
O         98.77700      157.83300      210.28200
C        100.58400      160.49200      209.64100
C        100.03000      160.79400      211.00900
C         99.79200      162.28200      211.15900
N        100.84600      163.06400      210.51700
C        101.98300      163.41800      211.10900
N        102.22100      163.06000      212.36200
N        102.88400      164.12900      210.44800
N         98.46800      158.59700      208.19200
C         97.07400      158.17400      208.18000
C         96.97300      156.68600      207.87900
O         96.07000      155.99800      208.36600
C         96.26600      159.01000      207.17400
C         96.68200      160.48200      207.23700
C         94.78300      158.86700      207.44700
C         96.59700      161.10200      208.61500
N         97.89400      156.16500      207.06900
C         97.82100      154.75100      206.72300
C         98.12800      153.88400      207.93600
O         97.28200      153.09900      208.37500
C         98.77100      154.44500      205.56500
C         98.87400      152.99000      205.22700
N         99.93500      152.46800      204.52100
C         98.05200      151.94800      205.49400
C         99.76600      151.16700      204.37200
N         98.63100      150.82600      204.95400
N         99.32700      154.01600      208.49400
C         99.68200      153.37700      209.75300
C        100.18200      154.46400      210.69000
O        100.49500      155.57700      210.25500
C        100.74200      152.27200      209.57100
C        100.43700      151.43800      208.33900
C        102.12800      152.87300      209.48800
N        100.24300      154.15100      211.97800
C        100.61200      155.13400      212.98100
C        101.81300      154.64800      213.77700
O        102.18300      153.47500      213.72600
C         99.44200      155.42700      213.92200
O         98.69600      154.22400      214.13700
C         98.53000      156.48000      213.31700
N        102.44100      155.59400      214.47500
C        103.51600      155.42600      215.46100
C        104.71100      154.63100      214.95200
O        105.53300      154.18900      215.76900
C        102.99900      154.82700      216.78000
C        102.66000      153.33400      216.70300
O        103.24600      152.57200      215.91000
O        101.77800      152.91200      217.47900
N        104.84800      154.43100      213.64700
C        105.96400      153.68100      213.10000
C        106.77400      154.57200      212.16900
O        106.40900      155.71600      211.88700
C        105.48600      152.42900      212.35700
C        104.59400      151.52200      213.18400
C        105.40500      150.56300      214.04300
C        105.99800      149.44100      213.20900
N        106.57000      148.35300      214.04500
N        107.89600      154.03200      211.70300
C        108.72300      154.66500      210.68700
C        108.91500      153.70300      209.52900
O        108.78600      152.48700      209.69400
C        110.08100      155.08800      211.24300
C        110.15700      155.11200      212.75500
C        109.69400      156.45500      213.29600
C        110.32200      157.61300      212.53500
N        111.81000      157.54000      212.50500
N        109.22300      154.25400      208.36000
C        109.35100      153.44600      207.15600
C        110.52000      152.48300      207.26400
O        110.48800      151.38900      206.69400
C        109.52600      154.33100      205.92900
C        109.79200      153.54700      204.71000
C        111.00000      153.32200      204.13100
C        108.83000      152.85700      203.91800
N        110.85100      152.54100      203.01600
C        109.52400      152.24100      202.86400
C        107.44700      152.70700      203.99300
C        108.88300      151.48700      201.89400
C        106.81200      151.95700      203.03100
C        107.52900      151.35600      201.99400
N        111.55700      152.88100      207.99400
C        112.74600      152.05900      208.15200
C        112.57600      150.96800      209.19400
O        113.06600      149.85300      209.00100
C        113.94600      152.93000      208.52500
O        114.98900      152.10300      209.05400
C        113.54700      153.96700      209.55600
N        111.88800      151.25800      210.29500
C        111.65600      150.24400      211.31100
C        110.55800      149.26800      210.92700
O        110.33900      148.29700      211.65700
C        111.30900      150.90600      212.63900
C        109.87900      151.38700      212.72100
C        109.38500      151.47100      214.14900
O        110.09800      150.98500      215.05100
O        108.28800      152.01900      214.37500
N        109.86500      149.49600      209.81600
C        108.82600      148.58400      209.37200
C        109.44900      147.31300      208.80500
O        110.66900      147.13500      208.79600
C        107.93300      149.26400      208.34100
C        106.76100      150.03200      208.94400
C        106.01000      150.79200      207.87100
C        105.83800      149.07800      209.66800
N        108.60300      146.41500      208.32300
C        109.06400      145.16000      207.75500
C        108.58800      145.04200      206.31000
O        108.00600      145.97000      205.74500
C        108.60000      143.98000      208.60600
C        109.50500      142.77400      208.46300
O        110.17100      142.66200      207.41200
O        109.55900      141.94700      209.39800
N        108.83900      143.87600      205.71800
C        108.66800      143.70700      204.28000
C        107.22000      143.91300      203.85400
O        106.91800      144.79100      203.03800
C        109.16800      142.32600      203.85800
O        108.60600      141.98300      202.58700
C        108.79300      141.27500      204.89000
N        106.30800      143.10200      204.38600
C        104.93800      143.14800      203.89600
C        104.27000      144.47500      204.21500
O        103.37600      144.90100      203.48200
C        104.13900      141.98500      204.46700
C        104.32300      140.71700      203.66300
O        104.63800      140.76700      202.47500
N        104.13200      139.57200      204.30500
N        104.70100      145.15200      205.27700
C        104.22900      146.51100      205.51500
C        104.64700      147.42700      204.37600
O        103.84400      148.21800      203.86500
C        104.76800      147.02700      206.84600
C        104.38200      146.17600      208.03600
C        105.30700      144.99500      208.22200
O        105.81800      144.43500      207.25300
N        105.53000      144.61100      209.46900
N        105.90900      147.32400      203.96200
C        106.38700      148.11100      202.83400
C        105.58000      147.81300      201.58100
O        105.16500      148.72900      200.86400
C        107.86900      147.83500      202.59700
C        108.76100      148.38500      203.66300
N        109.99100      147.84100      203.95600
C        108.60000      149.42900      204.50800
C        110.55100      148.52700      204.93400
N        109.72800      149.49700      205.28700
N        105.34600      146.53200      201.30100
C        104.62700      146.17500      200.08300
C        103.18200      146.65300      200.12900
O        102.64800      147.13200      199.12200
C        104.69200      144.67000      199.86100
C        106.10200      144.14300      199.80300
C        106.14000      142.71000      199.31200
N        105.74900      142.60500      197.91100
C        104.66600      141.96600      197.48300
N        103.86100      141.36700      198.34700
N        104.39100      141.92200      196.18800
N        102.52800      146.52800      201.28400
C        101.17800      147.05500      201.41600
C        101.15700      148.54900      201.16100
O        100.29100      149.04900      200.43600
C        100.62000      146.75900      202.80300
O        101.60600      147.08200      203.78900
C        100.24800      145.30200      202.92300
N        102.09900      149.28200      201.75200
C        102.10800      150.72300      201.55100
C        102.35400      151.06800      200.09300
O        101.76200      152.01300      199.56300
C        103.15400      151.38400      202.43400
C        102.73900      152.73100      202.91600
N        102.08100      153.63000      202.10700
C        102.87200      153.33300      204.11900
C        101.82900      154.73100      202.79000
N        102.29800      154.57600      204.01400
N        103.21900      150.30700      199.42500
C        103.47600      150.56100      198.01400
C        102.22500      150.33000      197.18300
O        101.91200      151.11400      196.27800
C        104.61700      149.67700      197.52100
N        101.49800      149.25300      197.47000
C        100.25200      149.02100      196.75600
C         99.24200      150.12000      197.04400
O         98.48200      150.51000      196.15400
C         99.68900      147.65200      197.12200
C        100.60000      146.51300      196.72300
S        100.51800      145.11800      197.85300
C        102.01800      144.25700      197.40500
N         99.23200      150.64400      198.26800
C         98.35700      151.77000      198.57300
C         98.72800      152.98700      197.74400
O         97.85300      153.71400      197.26300
C         98.43100      152.10800      200.05600
C         97.97200      151.00400      200.96100
C         97.25500      151.56300      202.15700
N         95.85800      151.84200      201.86300
C         95.01700      152.39100      202.72800
N         95.44000      152.71700      203.94100
N         93.75700      152.61200      202.38200
N        100.02500      153.23300      197.58800
C        100.46900      154.35000      196.76900
C        100.01200      154.17800      195.33100
O         99.45700      155.10200      194.72600
C        101.98700      154.47700      196.83800
C        102.53000      155.50600      197.82500
C        101.92100      156.85700      197.55700
C        102.25900      155.09600      199.24500
N        100.23900      152.99400      194.76500
C         99.82400      152.75500      193.38600
C         98.31900      152.89800      193.23400
O         97.83500      153.40600      192.21700
C        100.27000      151.37200      192.92500
C        101.77100      151.16200      192.78800
C        102.04900      150.04600      191.80300
C        102.43300      152.43900      192.34500
N         97.56200      152.45400      194.23500
C         96.11800      152.63800      194.21100
C         95.77400      154.11800      194.16100
O         95.08500      154.58000      193.24600
C         95.49600      151.97000      195.43700
C         93.97900      152.01400      195.42900
O         93.36800      151.47800      196.37600
O         93.39400      152.57100      194.47600
N         96.26300      154.88200      195.13600
C         95.99600      156.30600      195.16400
C         96.44300      157.03300      193.91700
O         95.91100      158.10300      193.60800
N         97.39000      156.47600      193.19100
C         97.89700      157.14200      191.99900
C         96.89500      157.21100      190.86400
O         97.27100      157.68300      189.79300
C         99.16400      156.43700      191.52300
C        100.16600      157.29100      190.75600
C        100.42300      158.57800      191.49700
C        101.45000      156.52900      190.55800
N         95.63800      156.79300      190.98000
C         94.71900      156.84100      189.85000
C         93.52900      157.75600      190.08500
O         92.54800      157.67800      189.33800
C         94.23200      155.43600      189.50600
C         95.15800      154.69500      188.57600
C         94.59000      153.36600      188.15200
O         93.75500      152.81700      188.90000
O         94.97300      152.87000      187.07400
N         93.58200      158.61700      191.10000
C         92.52500      159.59600      191.27900
C         92.48300      160.51400      190.06500
O         93.49600      160.74800      189.39600
C         92.73800      160.39800      192.57200
C         92.69000      159.47500      193.76700
C         94.06500      161.12100      192.52400
N         91.29700      161.03000      189.76900
C         91.09800      161.83900      188.57700
C         91.48200      163.29600      188.76900
O         91.37700      164.07600      187.82000
C         89.64300      161.75900      188.12200
O         89.45300      162.62500      186.99800
C         88.72200      162.18900      189.24100
N         91.91900      163.68200      189.96000
C         92.29800      165.05700      190.24500
C         93.80400      165.20000      190.08700
O         94.56800      164.42700      190.67400
C         91.86500      165.46100      191.65200
N         94.22700      166.18400      189.29500
C         95.65400      166.40500      189.10500
C         96.35400      166.72800      190.41400
O         97.51000      166.34700      190.60700
C         95.88800      167.53500      188.10900
C         95.15100      167.38400      186.79700
C         95.30800      168.65200      185.98300
N         94.58300      168.60600      184.72000
C         94.46700      169.64300      183.89900
N         93.79200      169.52500      182.76400
N         95.02600      170.80300      184.21500
N         95.67500      167.41800      191.32600
C         96.33200      167.85700      192.55100
C         96.61500      166.68100      193.47300
O         97.72800      166.53800      193.99600
C         95.47300      168.90300      193.25300
C         95.32500      170.19600      192.47100
C         94.37100      170.06500      191.30300
O         93.66400      169.03900      191.22800
O         94.33500      170.97900      190.45400
N         95.62200      165.82400      193.68400
C         95.85000      164.66000      194.52600
C         96.83800      163.70300      193.87600
O         97.64700      163.07200      194.56600
C         94.52700      163.96700      194.82200
C         93.48700      164.90400      195.39300
C         92.20300      164.17500      195.72200
C         91.14700      165.14600      196.21300
N         89.87200      164.45600      196.54700
N         96.79600      163.58900      192.54900
C         97.78800      162.77600      191.86100
C         99.18700      163.32000      192.08600
O        100.12600      162.55600      192.32200
C         97.47800      162.70900      190.37100
C         96.68800      161.49000      189.97000
C         96.95100      161.13800      188.52700
N         96.96600      162.32700      187.68600
C         95.90600      162.79100      187.03700
N         94.74600      162.16500      187.13600
N         96.00500      163.88100      186.29100
N         99.34700      164.63800      192.00800
C        100.64400      165.24000      192.28100
C        101.09200      164.94200      193.70100
O        102.26400      164.63500      193.94200
C        100.57700      166.74500      192.05100
C        101.76500      167.52800      192.59000
C        103.01400      167.13200      191.84800
C        101.51700      169.01300      192.46600
N        100.17300      165.03800      194.65500
C        100.51100      164.72300      196.03700
C        101.01900      163.29100      196.15700
O        102.07700      163.03100      196.74800
C         99.28500      164.95000      196.91700
C         99.43600      164.48400      198.33700
C        100.43800      165.33300      199.07600
C        100.07500      166.80400      199.03300
N        101.15800      167.64700      199.61000
N        100.28300      162.34900      195.57300
C        100.65600      160.94400      195.67600
C        101.99500      160.69800      194.99800
O        102.82900      159.92700      195.49000
C         99.54600      160.06200      195.08300
C         99.98100      158.62400      195.04700
C         98.28500      160.20400      195.90000
N        102.22700      161.35100      193.86300
C        103.48300      161.15400      193.15400
C        104.65000      161.72200      193.94000
O        105.73900      161.14600      193.94200
C        103.41000      161.78700      191.77000
N        104.45100      162.85500      194.60600
C        105.50100      163.37200      195.47100
C        105.81500      162.38300      196.57900
O        106.98200      162.18700      196.94300
C        105.08100      164.71400      196.05500
C        105.04200      165.82800      195.04800
C        104.52500      167.09200      195.68200
N        104.90400      168.26700      194.91400
C        106.09300      168.84600      194.99400
N        107.01300      168.35200      195.80800
N        106.36400      169.91500      194.26400
N        104.78000      161.75000      197.12800
C        105.01400      160.71600      198.13000
C        105.85300      159.58000      197.55900
O        106.81900      159.12900      198.18800
C        103.68400      160.18700      198.65400
N        105.49400      159.10400      196.36900
C        106.25200      158.02200      195.75200
C        107.68500      158.44900      195.50100
O        108.61300      157.64900      195.63600
C        105.58100      157.56400      194.45100
C        104.28600      156.82800      194.75300
C        106.50300      156.66200      193.67700
C        103.71400      156.13000      193.55400
N        107.89100      159.70600      195.13000
C        109.24400      160.19500      194.91000
C        110.05400      160.14300      196.19500
O        111.19300      159.65700      196.20300
C        109.19700      161.61800      194.36400
C        110.55000      162.25800      194.09500
C        111.33100      161.38300      193.15500
C        110.37800      163.64000      193.51200
N        109.48300      160.63800      197.29100
C        110.18000      160.54100      198.56600
C        110.51000      159.09700      198.88700
O        111.59200      158.79900      199.39800
C        109.34500      161.14600      199.68600
C        110.00200      161.02500      201.03500
C        110.87000      161.99800      201.48800
C        109.76000      159.93800      201.85200
C        111.47400      161.89500      202.71200
C        110.36200      159.82600      203.07900
C        111.21600      160.80900      203.50400
O        111.81500      160.70800      204.73200
N        109.58400      158.18600      198.60000
C        109.86100      156.77000      198.81300
C        111.07500      156.34900      198.00300
O        111.98900      155.69200      198.51100
C        108.63200      155.92400      198.45600
C        109.05500      154.52900      198.04300
C        107.68700      155.87000      199.62800
N        111.09900      156.73300      196.72800
C        112.20400      156.36300      195.85200
C        113.52100      156.90100      196.38000
O        114.58200      156.32400      196.13000
C        111.95100      156.87500      194.43900
N        113.47500      158.01700      197.10200
C        114.66900      158.47300      197.79900
C        114.81900      157.76500      199.14000
O        115.93700      157.48300      199.58200
C        114.61700      159.98600      197.97300
C        114.29700      160.71500      196.68800
C        113.93100      162.15900      196.91800
O        114.00900      162.65500      198.03800
N        113.52700      162.84400      195.85900
N        113.70200      157.47600      199.80500
C        113.69700      156.69100      201.01800
C        114.04100      157.44000      202.28700
O        113.49900      157.10600      203.34500
N        114.91600      158.44000      202.20900
C        115.45900      159.12700      203.38000
C        114.42600      159.51700      204.42400
O        114.71500      160.30600      205.32200
C        116.19300      160.39900      202.97700
O        116.39100      161.21200      204.13700
C        115.37500      161.17100      201.96700
N        120.53200      160.66200      206.67500
C        121.64000      160.22500      207.51600
C        122.88900      159.94200      206.68700
O        123.39300      160.81900      205.98500
C        121.24700      158.99400      208.31400
N        123.38300      158.71000      206.77500
C        124.61300      158.34600      206.08500
C        124.36700      158.17600      204.59400
O        123.36200      157.59200      204.17900
C        125.18700      157.06000      206.67400
N        125.29600      158.68700      203.78700
C        125.20300      158.57500      202.33700
C        125.18500      157.12400      201.87100
O        124.40700      156.76900      200.98100
C        126.36100      159.32200      201.67600
N        126.02900      156.27100      202.45100
C        125.93900      154.84900      202.14800
C        124.61400      154.28100      202.62700
O        124.02000      153.41500      201.97200
C        127.10600      154.10100      202.78700
N        124.12900      154.76700      203.76900
C        122.84100      154.31200      204.27000
C        121.72400      154.67300      203.30500
O        120.89700      153.82200      202.95700
C        122.57000      154.90900      205.65000
C        121.28200      154.43000      206.29500
C        120.10200      155.31800      205.96700
O        120.33200      156.47600      205.56900
O        118.94800      154.86200      206.10600
N        121.67600      155.93200      202.86800
C        120.61300      156.33200      201.95500
C        120.78300      155.63900      200.61300
O        119.80100      155.35500      199.92900
C        120.55300      157.86400      201.80600
C        120.40600      158.52900      203.16200
C        121.76800      158.38700      201.08100
N        122.01900      155.31100      200.23400
C        122.22100      154.55900      199.00100
C        121.61200      153.17000      199.09900
O        120.89500      152.72800      198.19200
C        123.70700      154.45100      198.67700
C        124.01200      153.39400      197.62600
C        125.45800      153.41200      197.17600
O        126.23700      154.26700      197.59300
N        125.82300      152.47000      196.31500
N        121.90300      152.45900      200.18600
C        121.33800      151.12800      200.36700
C        119.82200      151.18400      200.45200
O        119.12400      150.38700      199.81200
C        121.90800      150.49200      201.62500
O        121.27400      151.03700      202.76600
N        119.29900      152.11600      201.24500
C        117.85600      152.23100      201.38700
C        117.20500      152.60200      200.06400
O        116.10100      152.14400      199.76000
C        117.52700      153.25400      202.47200
C        116.73000      152.72500      203.64300
C        115.87300      153.44400      204.42100
C        116.72800      151.39000      204.18100
N        115.32600      152.64700      205.39100
C        115.83500      151.38300      205.26700
C        117.39000      150.20200      203.85000
C        115.58600      150.24200      206.01800
C        117.13900      149.07200      204.59600
C        116.24700      149.09900      205.66700
N        117.88200      153.41900      199.25700
C        117.38400      153.74900      197.93000
C        117.30400      152.51000      197.06600
O        116.28200      152.25200      196.43000
C        118.29200      154.78300      197.27000
C        117.89600      156.21900      197.49100
S        118.89100      157.31600      196.47000
C        118.11500      158.89400      196.79900
N        118.39700      151.75600      196.99500
C        118.38400      150.52900      196.21300
C        117.23500      149.63000      196.64200
O        116.48600      149.11100      195.80200
C        119.72400      149.81500      196.36000
C        119.63800      148.31200      196.32800
C        120.83400      147.69400      197.02800
N        122.09400      148.07700      196.40200
C        123.25700      147.48000      196.63700
N        124.35600      147.89000      196.01800
N        123.32300      146.46800      197.49200
N        117.05000      149.47900      197.94900
C        115.99100      148.63700      198.48100
C        114.61800      149.13900      198.05500
O        113.84000      148.39500      197.44800
C        116.08900      148.57900      200.00100
C        114.89200      147.95500      200.66000
C        114.42800      146.71500      200.26100
C        114.23100      148.60400      201.68400
C        113.33700      146.14200      200.86000
C        113.13900      148.03900      202.29000
C        112.69500      146.80900      201.87500
O        111.60000      146.24300      202.48200
N        114.31400      150.39400      198.38500
C        113.02500      150.98000      198.05400
C        112.74000      150.89000      196.57100
O        111.60500      150.64400      196.16100
C        112.98800      152.43700      198.49700
C        113.00600      152.58500      199.98600
O        112.42300      151.78200      200.70700
N        113.68800      153.60900      200.46500
N        113.75700      151.11100      195.74500
C        113.53600      151.11100      194.30800
C        113.19500      149.71600      193.83300
O        112.26900      149.52500      193.03800
C        114.76000      151.66300      193.56600
C        114.86900      153.16800      193.77300
C        114.63300      151.35000      192.10600
C        113.60800      153.90300      193.47100
N        113.94300      148.71700      194.29000
C        113.59800      147.36700      193.88200
C        112.22000      146.99100      194.39000
O        111.49800      146.24000      193.73200
C        114.66200      146.38700      194.35500
C        115.84900      146.32500      193.44700
C        115.80000      145.59700      192.27900
C        117.00200      147.01800      193.74700
C        116.88400      145.54700      191.43900
C        118.08700      146.97000      192.91100
C        118.02900      146.23400      191.75700
N        111.81300      147.55500      195.52300
C        110.45900      147.32100      196.00900
C        109.42500      147.92700      195.06800
O        108.44900      147.26800      194.68900
C        110.30800      147.89800      197.41000
C        108.86600      148.05300      197.86100
C        108.25200      146.68900      198.05000
C        108.79600      148.86000      199.13700
N        109.61800      149.19400      194.69900
C        108.69800      149.85900      193.78500
C        108.64400      149.14400      192.45100
O        107.61100      149.15400      191.77700
C        109.11000      151.31200      193.58600
C        109.09400      152.18400      194.83500
C        109.73500      153.51700      194.55800
C        107.68000      152.37700      195.29700
N        109.75100      148.53200      192.04900
C        109.73500      147.68800      190.86600
C        108.86500      146.46600      191.09200
O        108.00800      146.13500      190.26700
C        111.15400      147.26500      190.51400
C        111.92700      148.23900      189.64800
C        113.07200      147.51400      189.00800
C        111.00300      148.79400      188.60100
N        109.08900      145.77600      192.20900
C        108.35700      144.55100      192.50100
C        106.85700      144.79100      192.48500
O        106.09700      144.01200      191.90000
C        108.79900      144.00000      193.85200
C        107.89900      142.91800      194.40100
C        108.05300      142.74500      195.89800
O        108.69900      143.60400      196.53200
O        107.52700      141.75300      196.44400
N        106.40800      145.87300      193.11800
C        104.97600      146.14000      193.13300
C        104.49400      146.53900      191.74600
O        103.33500      146.30000      191.39300
C        104.64600      147.20600      194.19000
C        105.41400      148.46800      193.92100
C        103.16100      147.48000      194.23100
N        105.36600      147.12200      190.92900
C        105.01400      147.42600      189.55500
C        104.74100      148.89000      189.29000
O        103.85200      149.23300      188.50800
N        105.51000      149.76500      189.93500
C        105.27100      151.19500      189.80700
C        105.47800      151.67900      188.38600
O        104.79400      152.60900      187.94100
C        106.19900      151.96000      190.74000
O        106.28200      151.27500      191.99300
C        105.68500      153.36000      190.96500
N        106.40700      151.06300      187.66100
C        106.89000      151.66700      186.42800
C        105.78600      151.79400      185.39200
O        105.68200      152.81900      184.71400
C        108.05200      150.86200      185.86900
C        108.87600      151.62000      184.88600
C        109.63900      152.69100      185.29300
C        108.88100      151.27100      183.55200
C        110.39400      153.39400      184.39400
C        109.63600      151.97200      182.65400
C        110.39300      153.03400      183.07600
N        104.95300      150.76800      185.24700
C        103.91300      150.83800      184.23000
C        102.87100      151.88900      184.57600
O        102.39200      152.61200      183.69300
C        103.27100      149.47300      184.04100
C        104.04000      148.61600      183.07000
O        105.02600      147.98100      183.43400
N        103.60600      148.61000      181.81700
N        102.50600      151.99400      185.85200
C        101.60900      153.06500      186.25800
C        102.21100      154.42000      185.93000
O        101.51700      155.32200      185.44000
C        101.30800      152.96100      187.74800
N        103.50800      154.57600      186.18000
C        104.15400      155.84500      185.88300
C        104.14500      156.12900      184.39200
O        103.93900      157.26900      183.97500
C        105.57600      155.84100      186.41700
C        105.64500      156.12100      187.90700
C        107.08000      156.23600      188.32600
C        104.89400      157.39000      188.22000
N        104.35800      155.10500      183.57200
C        104.36400      155.31100      182.12900
C        102.98300      155.72600      181.64300
O        102.85000      156.60800      180.78500
C        104.86300      154.04600      181.41700
C        104.43100      154.04700      179.97500
C        106.36700      153.96500      181.50600
N        101.93300      155.10300      182.17700
C        100.58400      155.50300      181.78900
C        100.31400      156.94900      182.17800
O         99.79100      157.73700      181.37800
C         99.54600      154.57800      182.42100
C         99.48600      153.18900      181.81200
C         99.01000      152.13800      182.79800
O         99.82100      151.67500      183.62600
O         97.81700      151.77300      182.74300
N        100.67000      157.31900      183.40600
C        100.47400      158.70000      183.82500
C        101.30200      159.64700      182.96800
O        100.88400      160.77800      182.69300
C        100.81900      158.83200      185.30500
C        100.16000      159.89000      186.18100
C        100.66900      159.75300      187.59700
C        100.41600      161.29400      185.68600
N        102.46300      159.19300      182.51000
C        103.30500      160.02300      181.66300
C        102.65400      160.25800      180.31300
O        102.70100      161.36700      179.77900
C        104.67000      159.37000      181.48900
C        105.60900      160.11400      180.54900
C        105.77600      161.52400      181.02800
C        106.94900      159.42000      180.48000
N        102.06200      159.21800      179.73200
C        101.29100      159.40800      178.50900
C        100.18400      160.42300      178.73500
O         99.96800      161.33100      177.92100
C        100.70400      158.08000      178.04100
C        101.67600      157.27300      177.22700
O        102.05000      156.16800      177.60500
N        102.09200      157.82000      176.09900
N         99.46600      160.27100      179.84800
C         98.40100      161.20600      180.18700
C         98.91400      162.63900      180.18300
O         98.28200      163.53800      179.62200
C         97.81400      160.84500      181.55100
C         96.31600      161.03800      181.66800
S         95.85300      162.77600      181.68900
C         96.93700      163.38900      182.97200
N        100.06600      162.86800      180.80700
C        100.63500      164.20900      180.81100
C        101.14300      164.62300      179.44000
O        101.21800      165.82100      179.15500
C        101.77100      164.30400      181.82300
C        101.31200      164.49100      183.25200
C        100.91600      165.92000      183.55200
O        101.15500      166.79500      182.69400
O        100.36700      166.17100      184.64500
N        101.50200      163.66000      178.59600
C        101.97700      163.98300      177.25600
C        100.84100      164.52300      176.40700
O        101.01100      165.49400      175.66200
C        102.61900      162.74900      176.60100
C        104.10300      162.67600      176.92900
C        102.42200      162.77100      175.09600
C        104.81700      161.62400      176.13000
N         99.66000      163.93100      176.52200
C         98.57300      164.29000      175.62300
C         97.86400      165.56700      176.02700
O         96.70300      165.76100      175.65600
C         97.57200      163.14500      175.51000
C         97.98900      162.12800      174.47900
O         99.20800      161.90200      174.33600
O         97.10700      161.58000      173.79000
N         98.51900      166.42100      176.80000
C         98.00900      167.75400      177.06000
C         98.76900      168.77500      176.22600
O         99.57100      168.40900      175.36800
C         98.12200      168.08400      178.54100
C         97.23500      167.21000      179.39000
O         96.68800      166.21700      178.91100
N         97.09000      167.56800      180.65900
N        109.46400      179.61000      180.38500
C        108.54200      180.34600      181.23700
C        109.05900      180.36600      182.66600
O        109.67300      181.33800      183.10000
C        107.13300      179.74700      181.18300
C        106.80200      179.28700      179.76400
C        106.11200      180.76000      181.66200
C        106.91800      177.79500      179.56500
N        108.80800      179.28300      183.39500
C        109.23000      179.18000      184.78400
C        109.28200      177.71300      185.17700
O        108.83900      176.83100      184.43900
C        108.29300      179.95200      185.71300
O        108.59100      179.67600      187.06700
N        109.83300      177.46600      186.36400
C        109.90700      176.10300      186.87600
C        108.51800      175.54700      187.15700
O        108.11000      174.53900      186.56700
C        110.77300      176.08200      188.13400
C        110.85000      174.84200      189.01700
C        112.26400      174.68600      189.52900
C        109.89400      174.96100      190.18300
N        107.76300      176.21300      188.03400
C        106.45500      175.71100      188.43700
C        105.49300      175.58500      187.26800
O        104.40400      175.02900      187.43800
C        105.85300      176.61800      189.50800
N        105.86100      176.10100      186.09500
C        105.06400      175.85900      184.89900
C        104.83100      174.36900      184.69600
O        103.75200      173.95300      184.26100
C        105.75400      176.47100      183.68100
C        104.83500      176.58300      182.47800
O        104.27400      175.55300      182.04800
O        104.67500      177.70700      181.95800
N        105.82800      173.54800      185.01300
C        105.70500      172.09900      184.91800
C        106.36600      171.47800      186.14300
O        107.57300      171.25100      186.17400
C        106.31300      171.57600      183.62700
O        105.44400      171.81600      182.54000
N        105.56000      171.22400      187.17100
C        106.05800      170.47900      188.31700
C        105.72100      169.00600      188.18600
O        106.60600      168.14900      188.28500
C        105.46600      171.03500      189.60500
O        104.06800      171.27700      189.41300
C        106.15200      172.33100      189.98500
N        104.44500      168.70700      187.94500
C        103.97800      167.32800      187.90200
C        104.86300      166.47800      187.01200
O        105.50200      165.52900      187.48000
C        102.53600      167.28900      187.40900
C        102.01000      168.66200      187.04300
O        102.72200      169.66400      187.26800
O        100.87500      168.73900      186.52800
N        104.93500      166.82700      185.72900
C        105.84000      166.13400      184.82400
C        107.21500      165.96600      185.44900
O        107.69400      164.83600      185.60200
C        105.94000      166.89600      183.51100
C        106.29600      166.04400      182.30500
C        105.40200      164.84200      182.26000
C        106.14000      166.86100      181.05100
N        107.83400      167.07300      185.86300
C        109.11400      166.99700      186.55500
C        109.08800      165.91200      187.61300
O        109.83100      164.92800      187.52400
C        109.45400      168.34200      187.18900
C        109.99900      169.35200      186.21700
C        110.88300      170.36000      186.91000
N        110.52900      170.51400      188.31200
C        109.63700      171.38700      188.75600
N        109.01100      172.18100      187.90200
N        109.37200      171.46600      190.05000
N        108.19000      166.04900      188.59000
C        108.07900      165.04300      189.63800
C        108.03800      163.65800      189.02800
O        108.91200      162.82300      189.29200
C        106.84000      165.30700      190.50300
C        106.50600      164.07700      191.29800
C        107.09400      166.47500      191.42100
N        107.07100      163.41900      188.14500
C        106.97400      162.12000      187.50000
C        108.31800      161.69800      186.94100
O        108.86500      160.66300      187.33800
C        105.92500      162.17300      186.40000
C        105.20100      160.88600      186.04800
C        104.00300      161.21200      185.19400
C        106.12400      159.96200      185.30700
N        108.89900      162.52500      186.07600
C        110.15000      162.14300      185.43900
C        111.19000      161.76000      186.47200
O        111.84300      160.71800      186.33700
C        110.65600      163.27700      184.56300
C        109.95600      163.31200      183.21600
C        110.37800      164.53900      182.46900
C        110.30300      162.06900      182.44100
N        111.30900      162.55400      187.53800
C        112.27200      162.23200      188.57800
C        112.22400      160.75700      188.90300
O        113.20300      160.03600      188.67600
C        111.99700      163.05400      189.82900
C        112.50600      164.45800      189.71500
O        113.03500      164.85100      188.68400
N        112.34800      165.23200      190.77700
N        111.05700      160.27500      189.33000
C        110.94700      158.88900      189.75700
C        111.53700      157.97200      188.71000
O        112.48900      157.22900      188.98400
C        109.48600      158.53200      190.05200
C        108.85100      159.61600      190.90100
C        109.42000      157.23600      190.78300
C        107.43700      159.31700      191.25300
N        111.04400      158.07100      187.47500
C        111.50300      157.16400      186.43500
C        113.01500      157.15900      186.36100
O        113.64200      156.10100      186.48600
C        110.90400      157.55700      185.09500
C        109.42100      157.34300      185.01600
S        108.74700      157.99300      183.48900
C        107.29600      156.97200      183.33400
N        113.61900      158.34200      186.25000
C        115.07000      158.40700      186.19900
C        115.66900      157.65400      187.36700
O        116.39300      156.66900      187.17800
C        115.54200      159.85300      186.20300
C        117.03300      159.96400      186.15000
C        117.70200      159.85000      184.95600
C        117.77300      160.16700      187.29500
C        119.06100      159.94800      184.89800
C        119.13900      160.26200      187.24700
C        119.77800      160.15100      186.04300
O        121.14400      160.24400      185.97500
N        115.31300      158.06600      188.58500
C        115.82500      157.39400      189.76600
C        115.76300      155.89500      189.58900
O        116.79600      155.21900      189.65100
C        115.03800      157.82000      190.99400
C        115.34300      159.24800      191.41300
C        114.52000      159.63700      192.61100
C        116.80400      159.36000      191.72700
N        114.58500      155.37600      189.24000
C        114.43800      153.93500      189.10400
C        115.51200      153.39800      188.18300
O        116.42800      152.68500      188.61800
C        113.03800      153.58200      188.58600
C        112.00800      153.75700      189.68900
C        113.01200      152.16900      188.07900
C        110.62900      153.38300      189.25900
N        115.48300      153.83100      186.92200
C        116.45600      153.34300      185.96000
C        117.85300      153.48600      186.52100
O        118.61000      152.50900      186.58700
C        116.31000      154.08500      184.62700
C        117.39900      153.65300      183.70000
C        114.96900      153.79100      184.02700
N        118.17500      154.67600      187.02800
C        119.50600      154.91200      187.56000
C        119.89500      153.80600      188.51800
O        120.82300      153.03400      188.25000
C        119.56100      156.26300      188.25700
C        120.93900      156.62300      188.70200
C        121.94300      156.48300      187.58400
O        122.09700      157.44200      186.80500
O        122.58100      155.41700      187.48200
N        119.12900      153.65000      189.59400
C        119.49200      152.65500      190.58700
C        119.56100      151.27900      189.95800
O        120.54400      150.55600      190.14100
C        118.49300      152.67500      191.72600
O        117.18300      152.71800      191.16900
C        118.69800      153.90900      192.56300
N        118.56400      150.93100      189.14900
C        118.54600      149.60000      188.56200
C        119.77800      149.39300      187.70700
O        120.39300      148.32200      187.71700
C        117.26100      149.38700      187.75400
C        117.38200      148.14400      186.90900
C        116.10100      149.28000      188.69400
N        120.17800      150.42100      186.97300
C        121.39000      150.24900      186.20200
C        122.63300      150.47000      187.03600
O        123.68300      149.90600      186.71500
C        121.41900      151.18600      185.00700
C        122.61300      150.97900      184.14100
N        122.77300      149.85600      183.36300
C        123.72900      151.72200      183.97000
C        123.92600      149.92900      182.72400
N        124.52600      151.05200      183.07600
N        122.54100      151.27000      188.09700
C        123.71000      151.48600      188.93400
C        124.18600      150.17100      189.52300
O        125.36000      150.02200      189.87500
C        123.38700      152.49200      190.03100
C        124.59500      152.99700      190.76200
C        124.79900      152.27600      192.06800
O        123.83800      151.87800      192.72400
N        126.05500      152.09300      192.45500
N        123.28800      149.20200      189.62400
C        123.63400      147.85600      190.03400
C        123.64000      146.87700      188.87400
O        123.76600      145.67200      189.10300
C        122.65900      147.37900      191.10500
C        122.14600      148.50000      191.97500
C        122.07300      148.12200      193.43300
O        122.14400      146.91500      193.74500
O        121.95700      149.03600      194.27500
N        123.49900      147.36400      187.63900
C        123.48100      146.46900      186.48700
C        124.85300      145.86000      186.24000
O        125.00500      144.98600      185.38000
C        122.99400      147.21500      185.24400
S        122.33200      146.17100      183.92500
N        125.86200      146.31100      186.97400
C        127.19900      145.75000      186.85800
C        127.44400      144.70200      187.93800
O        127.19800      143.51400      187.73200
C        128.24900      146.85600      186.95000
C        128.43700      147.40600      188.34900
C        128.78800      148.87800      188.34700
O        129.38100      149.35500      189.33700
O        128.46600      149.56000      187.35200
N        121.04900      138.36000      194.37100
C        119.63500      138.70000      194.44400
C        119.34700      139.82500      193.47000
O        120.26200      140.53700      193.05600
C        119.24500      139.11600      195.86000
C        119.73600      140.50200      196.24300
C        121.20400      140.53000      196.58900
O        122.03200      140.29100      195.69000
O        121.53200      140.79900      197.76200
N        118.08200      139.94900      193.06900
C        117.62200      141.02800      192.20200
C        118.21900      140.91400      190.80800
O        117.86500      141.68600      189.91400
C        117.96800      142.39400      192.79300
C        117.21400      142.73900      194.02000
C        115.92600      142.41000      194.31000
C        117.69600      143.50000      195.12600
N        115.57700      142.91700      195.53700
C        116.64900      143.59000      196.05800
C        118.91600      144.11100      195.42000
C        116.78300      144.26700      197.26200
C        119.04800      144.78000      196.61500
C        117.98900      144.85400      197.52200
N        119.12700      139.95900      190.61500
C        119.68400      139.73100      189.29100
C        118.56700      139.48100      188.29300
O        118.50400      140.11300      187.23300
C        120.65600      138.55300      189.33100
C        121.74200      138.60200      188.27700
C        122.83700      139.58400      188.65600
N        123.97000      139.51900      187.73700
C        125.06900      140.25600      187.85300
N        125.18800      141.11900      188.85200
N        126.04900      140.13000      186.97200
N        117.65000      138.58100      188.64200
C        116.47400      138.36700      187.81300
C        115.65400      139.64000      187.68600
O        115.08700      139.91500      186.62400
C        115.62400      137.24300      188.39300
O        114.34700      137.23600      187.74700
C        115.43200      137.43900      189.89100
N        115.58500      140.43500      188.75400
C        114.79300      141.65800      188.71300
C        115.34500      142.62600      187.68000
O        114.62400      143.08300      186.78800
C        114.75900      142.31000      190.09200
C        113.78400      143.45800      190.18500
S        112.10300      142.88600      190.47100
C        112.25400      142.23500      192.13100
N        116.63100      142.95600      187.79100
C        117.22100      143.86500      186.82000
C        117.19400      143.27100      185.42300
O        117.02500      144.00400      184.44800
C        118.65000      144.22700      187.21700
C        119.71900      143.35300      186.59500
C        121.08600      143.96000      186.76800
N        121.22200      144.59800      188.07100
C        121.36200      143.93600      189.21200
N        121.38900      142.61100      189.21700
N        121.47500      144.59700      190.35100
N        117.32400      141.95200      185.30200
C        117.32400      141.35100      183.97600
C        115.96600      141.51200      183.31300
O        115.87300      142.00600      182.18400
C        117.72300      139.88000      184.06500
C        119.22800      139.66600      184.10700
C        119.62500      138.48100      184.96000
O        118.78800      137.87700      185.62600
N        120.90800      138.14500      184.94600
N        114.89500      141.13900      184.01200
C        113.57400      141.26300      183.41200
C        113.20800      142.72100      183.18600
O        112.58300      143.05600      182.17300
C        112.51800      140.56700      184.26800
O        111.24300      140.69600      183.63200
C        112.43400      141.17800      185.64600
N        113.60200      143.61200      184.09500
C        113.32400      145.02600      183.89200
C        114.03200      145.53500      182.64800
O        113.39400      145.88200      181.65300
C        113.75300      145.81800      185.11800
C        113.52700      147.28600      184.99600
C        112.25300      147.80300      185.02400
C        114.58700      148.15100      184.86500
C        112.04600      149.15100      184.92300
C        114.38100      149.49700      184.76300
C        113.11100      149.99800      184.79200
N        115.36200      145.52400      182.66900
C        116.16500      145.93300      181.52700
C        115.73600      145.25500      180.23700
O        116.00600      145.78000      179.15500
C        117.62700      145.62700      181.85000
C        118.65300      146.04000      180.83200
C        120.02800      145.59100      181.30800
N        121.09100      145.83100      180.33900
C        121.21100      145.18900      179.18100
N        120.32400      144.27200      178.82400
N        122.22100      145.46800      178.37200
N        115.07200      144.10600      180.31900
C        114.58000      143.47600      179.10300
C        113.24800      144.06200      178.66000
O        112.99700      144.19200      177.45800
C        114.44800      141.97000      179.31000
N        112.37800      144.40500      179.60400
C        111.07100      144.91800      179.21500
C        111.11800      146.40000      178.87800
O        110.34100      146.86600      178.04100
C        110.05100      144.65800      180.31900
C        110.31500      145.39700      181.60800
C        109.58100      146.71200      181.67500
O        108.90300      147.06100      180.69000
O        109.67500      147.39600      182.71300
N        112.00800      147.14800      179.52500
C        112.17100      148.56200      179.22100
C        112.47000      148.77100      177.74900
O        111.94300      149.69400      177.12300
C        113.28800      149.13900      180.08400
C        113.52800      150.63500      180.02300
C        112.23400      151.35100      180.26700
C        114.54100      151.01600      181.06700
N        113.30400      147.91800      177.17700
C        113.61900      147.97900      175.77100
C        112.69400      147.18700      174.88300
O        112.97800      147.03400      173.69200
N        111.63700      146.68600      175.40300
C        110.74400      145.94000      174.54100
C        109.55800      146.80400      174.13700
O        109.07200      147.61100      174.93200
C        110.24300      144.67700      175.24300
O        111.30200      144.00500      175.89900
N        109.07500      146.66000      172.91000
C        108.02400      147.56000      172.42300
C        106.69000      147.31400      173.10200
O        105.77400      146.74700      172.50100
C        107.96000      147.24000      170.92800
C        108.44600      145.84100      170.83100
C        109.48900      145.68600      171.88800
N        106.57000      147.74300      174.35300
C        105.36400      147.53000      175.13700
C        104.53300      148.79200      175.29100
O        103.45600      148.74200      175.89200
C        105.72300      146.98800      176.52200
C        106.91300      146.03600      176.62000
C        107.07600      145.55900      178.04700
C        106.73600      144.86100      175.68700
N        105.00200      149.91300      174.76400
C        104.36900      151.20900      174.96800
C        104.03700      151.77300      173.59700
O        104.92800      152.23400      172.87700
C        105.28800      152.12600      175.75800
C        106.08300      151.37400      176.79000
C        105.54200      151.08200      178.02700
C        107.36500      150.93600      176.52000
C        106.25800      150.39000      178.96700
C        108.08800      150.24200      177.45600
C        107.53000      149.97300      178.67700
O        108.25200      149.28000      179.61600
N        102.75700      151.72300      173.23800
C        102.31900      152.07500      171.89300
C        103.07200      151.25200      170.85600
O        103.30500      151.70300      169.73300
C        102.49000      153.57000      171.63400
C        102.09900      154.40200      172.82600
O        101.68100      153.87300      173.85400
N        102.24100      155.71300      172.70200
N        103.46500      150.04100      171.25000
C        104.25600      149.13700      170.42200
C        105.63200      149.71300      170.11000
O        106.24500      149.36900      169.09900
C        103.52100      148.78000      169.12900
C        102.04500      148.56800      169.34800
O        101.59800      148.39900      170.48200
N        101.27600      148.57600      168.26700
N        106.13500      150.58800      170.97600
C        107.43500      151.19300      170.78200
C        108.16200      151.20300      172.11700
O        107.52300      151.35200      173.16800
C        107.32700      152.62700      170.24800
C        106.54900      152.80900      168.94000
C        107.17400      152.13900      167.72000
O        107.99900      151.21700      167.86700
O        106.83500      152.55500      166.59100
N        109.48100      151.04600      172.11500
C        110.22700      151.08500      173.37200
C        110.07000      152.42800      174.05700
O        109.56900      153.39900      173.49300
C        111.67000      150.84400      172.93400
C        111.56000      150.19500      171.61000
C        110.35500      150.77400      170.97000
N        110.51400      152.47300      175.30900
C        110.38700      153.69300      176.09300
C        111.14800      154.84600      175.45300
O        110.67600      155.99500      175.43900
C        110.89300      153.43300      177.50100
C        110.50800      154.47400      178.47100
C        109.19700      154.84200      178.61000
C        111.45500      155.07800      179.25700
C        108.83900      155.80000      179.51000
C        111.10400      156.03500      180.15600
C        109.79400      156.39800      180.28600
N        112.32700      154.55400      174.91100
C        113.12600      155.59700      174.29000
C        112.36400      156.29600      173.18100
O        112.56900      157.48800      172.94900
C        114.42400      155.01000      173.75400
N        111.48000      155.58400      172.48700
C        110.70600      156.23300      171.44000
C        109.76600      157.26100      172.03900
O        109.57800      158.34600      171.48300
C        109.94400      155.19500      170.61100
C        110.92400      154.22200      169.97400
C        109.13200      155.88800      169.55300
C        111.86400      154.87600      169.02300
N        109.16100      156.94600      173.18000
C        108.31700      157.93000      173.84300
C        109.12300      159.15400      174.24300
O        108.66500      160.29400      174.08600
C        107.65000      157.30800      175.06200
C        106.85700      158.28600      175.88500
S        106.21300      157.50500      177.36500
C        105.45300      156.05900      176.64400
N        110.33500      158.94500      174.74700
C        111.13700      160.09900      175.13800
C        111.54500      160.93100      173.92800
O        111.54700      162.16700      173.98400
C        112.35300      159.63700      175.92100
C        111.92300      158.92400      177.19200
C        113.11900      158.48000      177.96700
C        111.08100      159.85200      178.01600
N        111.88900      160.27400      172.82500
C        112.19400      161.00600      171.60500
C        110.99000      161.80300      171.14000
O        111.12900      162.93000      170.65300
C        112.63600      160.04500      170.51100
C        114.10600      159.82200      170.46500
C        114.95900      160.85100      170.15400
C        114.63400      158.57900      170.72100
C        116.30600      160.64500      170.11000
C        115.97900      158.37000      170.67600
C        116.81600      159.40300      170.37100
N        109.80200      161.21800      171.25200
C        108.60200      161.95500      170.91600
C        108.44900      163.19800      171.76400
O        108.07900      164.26100      171.26400
N        108.72800      163.08100      173.05900
C        108.68700      164.26300      173.91000
C        109.65300      165.32600      173.41100
O        109.30400      166.51000      173.32200
C        109.01500      163.89000      175.35000
C        108.13000      162.82100      175.92300
S        108.34800      162.65900      177.69600
C        108.03900      164.33800      178.20700
N        110.87300      164.91900      173.06900
C        111.87600      165.88400      172.62500
C        111.41100      166.59200      171.36100
O        111.48600      167.82200      171.24800
C        113.23000      165.19100      172.41700
C        114.00600      165.88500      171.33400
C        114.01000      165.20700      173.70100
N        110.92600      165.82200      170.39000
C        110.44300      166.41500      169.15000
C        109.31100      167.39000      169.42000
O        109.35500      168.54400      168.98400
C        109.98100      165.32800      168.19200
O        111.11900      164.75000      167.54800
C        109.06600      165.91300      167.14800
N        108.28800      166.94200      170.14700
C        107.17300      167.81500      170.48000
C        107.62200      169.07100      171.20100
O        106.91300      170.07900      171.15900
C        106.16200      167.07300      171.34300
C        105.19700      166.21600      170.56800
C        103.95300      165.97300      171.39300
C        102.77900      165.56000      170.53200
N        101.49700      165.70100      171.27600
N        108.77000      169.03800      171.86900
C        109.27000      170.27000      172.46200
C        109.90900      171.16900      171.41600
O        109.53200      172.33700      171.27500
C        110.27700      169.97500      173.56100
C        111.04200      171.18100      173.99900
C        110.50800      172.05100      174.92100
C        112.29000      171.45200      173.48200
C        111.20600      173.15700      175.32500
C        112.98500      172.55900      173.88000
C        112.44500      173.41200      174.80400
N        110.90300      170.64900      170.69200
C        111.62000      171.48700      169.73400
C        110.67500      172.10800      168.72200
O        110.92800      173.21400      168.23400
C        112.69700      170.68200      169.01600
S        113.29200      171.44900      167.49300
N        109.57000      171.43200      168.41800
C        108.55200      171.98400      167.53800
C        107.84900      173.19400      168.12900
O        106.95900      173.74600      167.47400
C        107.52100      170.91200      167.19800
O        106.26700      171.50000      166.91000
N        108.21200      173.61800      169.33700
C        107.57400      174.75900      169.95400
C        106.12200      174.56500      170.31200
O        105.48400      175.51400      170.77400
N        105.57300      173.36800      170.11100
C        104.19700      173.07200      170.48000
C        104.11800      172.24200      171.75500
O        103.19500      171.44500      171.93100
C        103.46400      172.36400      169.34600
C        101.97900      172.52600      169.41000
N        101.35900      173.74900      169.26900
C        100.99100      171.62600      169.62800
C        100.05200      173.59300      169.38200
N         99.80200      172.31500      169.60000
N        105.08800      172.41000      172.64000
C        105.05700      171.85400      173.98300
C        106.07400      172.60900      174.82100
O        107.05200      172.02100      175.29400
C        105.36400      170.35900      173.97200
N        105.87700      173.90800      175.03600
C        106.93800      174.74400      175.60000
C        107.14500      174.58600      177.09700
O        107.84500      175.40800      177.69000
C        106.44900      176.16000      175.27000
C        104.97100      176.04400      175.30500
C        104.63300      174.66500      174.81400
N        106.56800      173.56700      177.72500
C        106.69000      173.40700      179.16200
C        107.46000      172.16500      179.58200
O        107.72900      172.00800      180.77700
C        105.30000      173.37900      179.81200
C        104.36000      172.39000      179.19900
N        104.77300      171.17100      178.70700
C        103.01900      172.43300      179.01500
C        103.73000      170.51000      178.23900
N        102.65300      171.25300      178.41400
N        107.81300      171.28800      178.65100
C        108.51600      170.06500      179.00700
C        109.81700      170.39400      179.72900
O        110.57000      171.26300      179.27100
C        108.82200      169.24000      177.76400
C        107.67600      168.42400      177.28400
C        106.45000      168.49900      177.90100
C        107.82500      167.57600      176.21000
C        105.39300      167.74400      177.45200
C        106.77300      166.82200      175.75600
C        105.55600      166.90600      176.37700
N        110.11400      169.74400      180.85400
C        111.44900      169.86500      181.44800
C        112.42900      169.04500      180.62800
O        112.30400      167.82500      180.53000
C        111.26400      169.28900      182.85100
C        110.15300      168.34100      182.70600
C        109.23000      168.89700      181.66500
N        113.40000      169.71700      180.02800
C        114.21100      169.05200      179.02400
C        115.44700      168.38600      179.59400
O        115.87900      167.36000      179.06100
C        114.61400      170.04100      177.93600
C        115.00200      169.37300      176.64600
S        113.97600      167.94600      176.27000
C        112.38000      168.71100      176.06800
N        116.03900      168.93400      180.65300
C        117.17300      168.24700      181.25200
C        116.78300      166.84800      181.68100
O        117.50800      165.88700      181.41600
C        117.71600      169.01600      182.44800
C        118.69900      168.19400      183.25100
C        119.27400      168.95900      184.41800
C        118.19500      169.37700      185.38600
N        118.76600      169.97500      186.61900
N        115.62400      166.70600      182.31300
C        115.24200      165.40600      182.83900
C        114.81800      164.45800      181.73100
O        115.15400      163.27400      181.77400
C        114.13900      165.57300      183.87200
C        114.45100      166.67400      184.85000
C        113.71500      166.50400      186.14400
C        114.23500      167.47300      187.17800
N        113.70300      167.16600      188.52700
N        114.10100      164.95400      180.72500
C        113.76200      164.10700      179.58800
C        115.02700      163.58200      178.93700
O        115.14400      162.39200      178.63300
C        112.90300      164.87500      178.57500
C        112.88300      164.13400      177.26900
C        111.50800      165.03900      179.09500
N        115.99800      164.46200      178.72200
C        117.21900      164.05100      178.05000
C        118.01400      163.07900      178.90600
O        118.52800      162.07800      178.40200
C        118.05300      165.27300      177.69900
C        117.57700      165.96600      176.43300
C        118.30400      167.26500      176.25500
C        117.79800      165.07100      175.24200
N        118.13600      163.35900      180.20100
C        118.85000      162.44500      181.07900
C        118.20100      161.07600      181.07200
O        118.88200      160.04900      181.00400
C        118.88900      163.00200      182.49300
C        119.96800      164.03100      182.77500
C        119.98900      164.33800      184.24700
C        121.30400      163.50700      182.32900
N        116.87600      161.04200      181.15700
C        116.17500      159.77100      181.17100
C        116.38100      159.02800      179.86700
O        116.58000      157.81200      179.86500
C        114.69500      160.00400      181.43100
C        113.86500      158.74400      181.57000
C        114.50600      157.82200      182.56400
C        112.47800      159.11100      182.01300
N        116.34100      159.74400      178.74700
C        116.59800      159.10800      177.46400
C        117.99800      158.52900      177.42300
O        118.20500      157.40500      176.95200
C        116.40100      160.11500      176.33800
C        116.87100      159.67500      174.96400
C        116.21500      158.38100      174.58200
C        116.53500      160.74100      173.96500
N        118.97200      159.27600      177.92700
C        120.33600      158.77700      177.95900
C        120.41900      157.49800      178.76200
O        120.95100      156.49000      178.29200
C        121.26000      159.82800      178.55100
C        122.62100      159.32700      178.79400
C        123.28100      158.38700      178.08100
C        123.50600      159.74600      179.82400
N        124.52600      158.18700      178.60200
C        124.68800      159.01500      179.67600
C        123.41400      160.67200      180.85700
C        125.76400      159.17700      180.51900
C        124.47900      160.83000      181.69100
C        125.64100      160.08800      181.52100
N        119.90000      157.52400      179.98300
C        120.04800      156.37300      180.85700
C        119.29300      155.16900      180.33100
O        119.76000      154.03900      180.48500
C        119.58100      156.72000      182.25700
C        120.49500      157.67800      182.94400
C        121.90200      157.16900      182.94700
C        122.81300      158.15200      183.63000
N        124.18200      157.61000      183.75500
N        118.14000      155.37400      179.70100
C        117.42100      154.21800      179.19300
C        118.11700      153.64300      177.97300
O        118.21300      152.42100      177.83400
C        115.96700      154.56100      178.88600
O        115.31000      153.39100      178.40300
C        115.86100      155.60800      177.83800
N        118.64100      154.49500      177.09400
C        119.44300      153.98500      175.99100
C        120.62600      153.20800      176.53300
O        120.96600      152.12900      176.03600
C        119.89500      155.13700      175.08400
C        121.05400      154.70100      174.24200
C        118.75700      155.57800      174.21400
N        121.24200      153.72300      177.59200
C        122.38900      153.06100      178.18900
C        122.01700      151.67600      178.68600
O        122.59200      150.67300      178.25400
C        122.93200      153.91500      179.32400
C        124.15700      153.36400      180.02300
C        125.16300      152.97500      178.99600
C        124.73000      154.41200      180.92400
N        121.03400      151.59900      179.58100
C        120.73400      150.32300      180.21800
C        120.13100      149.32700      179.24400
O        120.36000      148.12500      179.38700
C        119.80200      150.51100      181.40700
S        119.74400      149.06700      182.48400
N        119.37600      149.78300      178.25100
C        118.77000      148.84800      177.32100
C        119.65900      148.51300      176.14000
O        119.33800      147.58500      175.39600
C        117.45000      149.39400      176.80200
O        117.70200      150.52300      175.96300
C        116.57200      149.80300      177.94800
N        120.75200      149.22800      175.94200
C        121.68000      148.88700      174.88000
C        123.05100      148.48800      175.38100
O        123.73800      147.72700      174.70500
C        121.83100      150.06000      173.90800
C        120.55100      150.44900      173.18600
C        120.84800      151.43700      172.09600
C        119.91200      149.22100      172.61300
N        123.46300      148.96300      176.54600
C        124.74800      148.57200      177.07500
C        125.80900      149.61200      176.81900
O        125.85800      150.20700      175.74300
N        126.66100      149.83900      177.80200
C        127.70700      150.82700      177.68900
C        128.83600      150.35700      176.80300
O        128.69200      149.44700      175.98600
N        129.99100      150.98600      176.98400
C        131.09200      150.75100      176.06500
C        131.75300      149.40200      176.28500
O        132.28300      148.82000      175.33500
C        132.10500      151.88000      176.18900
C        131.51000      153.22700      175.97200
C        130.87400      153.52300      174.78900
C        131.56500      154.19100      176.94900
C        130.31400      154.75100      174.58000
C        131.00500      155.42500      176.74100
C        130.37700      155.70400      175.55500
N        131.72100      148.87700      177.50600
C        132.31900      147.57100      177.74300
C        131.48400      146.47400      177.10500
O        132.00800      145.61300      176.38600
C        132.47000      147.33100      179.23900
C        133.49700      148.22100      179.90100
C        132.95400      149.59600      180.22500
O        131.82900      149.91200      179.78300
O        133.64800      150.36000      180.92800
N        130.18000      146.48500      177.36400
C        129.29800      145.56300      176.66800
C        129.32100      145.80800      175.17000
O        129.12300      144.87700      174.38800
C        127.88300      145.68000      177.21600
C        126.93500      144.66100      176.63500
C        125.67400      144.51200      177.45100
O        125.67700      144.94200      178.62300
O        124.68000      143.97100      176.92300
N        129.58600      147.04300      174.75000
C        129.75900      147.31700      173.33000
C        130.94500      146.55000      172.77000
O        130.83900      145.88200      171.73800
C        129.94000      148.81400      173.11200
C        128.75700      149.53100      172.49700
C        128.97400      151.01400      172.58100
C        128.65300      149.09000      171.07100
N        132.09200      146.64700      173.43700
C        133.27700      145.93200      172.98500
C        133.04700      144.43400      172.98400
O        133.49500      143.72700      172.07400
C        134.45500      146.28100      173.87600
C        135.77300      146.07300      173.22000
C        136.89900      146.56000      174.08600
O        136.96600      146.23500      175.26900
N        137.78600      147.36100      173.51000
N        132.35400      143.93000      174.00000
C        132.11700      142.49600      174.07000
C        131.21700      142.03800      172.93600
O        131.50000      141.03400      172.27500
C        131.52500      142.12600      175.42300
O        132.15700      142.86100      176.44900
N        130.12500      142.75700      172.69600
C        129.26200      142.40200      171.58200
C        130.01500      142.50000      170.26900
O        129.78500      141.70800      169.35000
C        128.03800      143.30900      171.56000
C        127.10400      143.12000      172.73700
S        126.25400      144.64400      173.16200
C        125.26100      144.86300      171.69600
N        130.92200      143.46300      170.15700
C        131.72300      143.54800      168.94800
C        132.56700      142.30100      168.78300
O        132.64700      141.73400      167.69300
C        132.60700      144.78500      168.97600
C        133.39500      144.96000      167.69900
C        134.00400      146.34000      167.62800
C        134.73400      146.56800      166.32900
N        135.27100      147.94700      166.29300
N        133.19900      141.85000      169.86300
C        134.04000      140.66300      169.77300
C        133.22600      139.44500      169.36900
O        133.65800      138.64500      168.53100
C        134.74700      140.41700      171.10100
N        132.04100      139.28500      169.95400
C        131.21500      138.13400      169.60600
C        130.74600      138.20300      168.16200
O        130.74800      137.19200      167.45600
C        130.02800      138.00700      170.55500
C        130.36100      137.30700      171.85700
C        131.36800      138.06000      172.71200
O        130.93900      138.76500      173.64700
O        132.58100      137.94700      172.45000
N        130.32200      139.37700      167.70200
C        129.89600      139.46600      166.31300
C        131.06200      139.24100      165.36600
O        130.86900      138.74900      164.25100
C        129.23400      140.81000      166.04200
C        128.38100      140.81300      164.80200
C        127.47300      142.01500      164.76600
C        126.51700      141.93500      163.59900
N        125.67300      143.15400      163.52000
N        132.27800      139.58800      165.79000
C        133.45400      139.27000      164.99100
C        133.62400      137.76600      164.88200
O        133.75300      137.21400      163.78500
C        134.70400      139.89600      165.60600
C        134.76000      141.39700      165.53400
C        135.29300      141.87400      164.21400
N        136.72900      141.70000      164.11700
C        137.44700      142.12100      163.08900
N        136.85700      142.73800      162.08200
N        138.75400      141.92700      163.06700
N        133.63000      137.08600      166.02800
C        133.81800      135.64000      166.03300
C        132.75800      134.94600      165.19600
O        133.05900      134.02600      164.43100
C        133.78500      135.11000      167.46200
O        133.29900      133.78000      167.48100
N        131.50600      135.37500      165.33800
C        130.41100      134.74600      164.61000
C        130.63500      134.86300      163.11100
O        130.48100      133.89200      162.36400
C        129.07100      135.37000      165.02600
C        128.63500      134.82700      166.38200
C        128.02000      135.11000      163.97600
C        127.26700      135.29500      166.80300
N        131.01200      136.05000      162.64900
C        131.23600      136.25200      161.22600
C        132.52700      135.62000      160.73600
O        132.84500      135.74200      159.55000
C        131.23400      137.74300      160.90000
C        129.86900      138.41900      160.98100
C        129.83400      139.65800      160.12700
C        128.78900      137.46000      160.54900
N        133.27200      134.95100      161.60800
C        134.50100      134.30500      161.21600
C        135.70400      135.20900      161.13100
O        136.82400      134.70400      161.00200
N        135.51900      136.52100      161.20000
C        136.64300      137.43300      161.12700
C        137.59700      137.18700      162.29200
O        137.17400      136.79800      163.38100
C        136.15500      138.87400      161.15300
C        135.09200      139.19000      160.11300
C        134.59600      140.59500      160.28300
C        135.67200      139.00100      158.73900
N        138.88700      137.40100      162.08700
C        139.84500      137.24400      163.17100
C        139.58800      138.26500      164.26100
O        138.99600      139.32100      164.00200
C        141.19200      137.49400      162.48300
C        140.85100      138.29900      161.28800
C        139.53900      137.78200      160.82800
N        140.02300      137.99500      165.48500
C        139.73500      138.91000      166.59100
C        140.42800      140.24900      166.40900
O        141.28400      140.43600      165.54600
C        140.27200      138.16500      167.81300
C        141.27500      137.22800      167.27000
C        140.75900      136.80800      165.93500
N        140.03200      141.19700      167.25000
C        140.59200      142.53400      167.16900
C        142.03000      142.52400      167.67100
O        142.35800      141.78200      168.59900
C        139.77300      143.51800      167.99200
C        138.28900      143.60000      167.66000
C        137.64400      144.68500      168.48200
C        138.09200      143.86400      166.19100
N        142.90400      143.33800      167.08500
C        144.31500      143.28800      167.48100
C        144.57300      143.77200      168.89300
O        145.48900      143.26000      169.54500
C        144.99700      144.18700      166.44400
C        143.91600      145.06900      165.94000
C        142.67700      144.24800      165.95400
N        143.80600      144.73700      169.39200
C        144.07800      145.29100      170.71200
C        142.85200      145.27400      171.60700
O        141.79600      144.76400      171.22500
C        144.57900      146.73000      170.59900
C        145.35300      147.04600      169.34500
C        146.80700      146.64400      169.43700
O        147.09800      145.58000      170.02200
O        147.66600      147.39800      168.93300
N        142.98900      145.84200      172.80000
C        141.87100      146.15100      173.68400
C        141.82800      147.66900      173.76700
O        142.44700      148.26600      174.65100
C        142.03500      145.52200      175.04700
C        140.82700      145.72900      175.92500
O        139.77000      146.11700      175.39200
O        140.92700      145.50500      177.14600
N        141.09200      148.28300      172.84000
C        141.14800      149.72800      172.67300
C        140.91300      150.45200      173.98600
O        141.64300      151.38500      174.33100
C        140.12600      150.16600      171.63200
O        140.26000      149.39600      170.45500
N        139.90500      150.02400      174.74300
C        139.58500      150.71400      175.98600
C        140.76800      150.67400      176.93500
O        141.13500      151.68800      177.53600
C        138.33200      150.10400      176.62900
C        137.25800      149.88300      175.57500
C        137.82000      151.01300      177.70800
C        136.00900      149.27000      176.11900
N        141.39900      149.51200      177.07000
C        142.54600      149.40300      177.96200
C        143.72200      150.21100      177.44000
O        144.40000      150.90700      178.20600
C        142.93300      147.93900      178.13100
C        142.33000      147.29500      179.35500
C        143.31000      146.34800      180.01200
C        142.89100      146.04900      181.43600
N        143.98300      145.39200      182.19900
N        143.98300      150.12400      176.13600
C        145.09200      150.86800      175.55100
C        144.94900      152.34700      175.85200
O        145.91600      153.01600      176.22900
C        145.17000      150.61300      174.03900
C        146.25300      151.44900      173.44300
C        145.42700      149.15900      173.76500
N        143.73700      152.87800      175.71100
C        143.54000      154.29300      175.98100
C        143.58700      154.56600      177.47100
O        144.02000      155.64100      177.89800
C        142.22400      154.77100      175.36200
C        142.17500      154.37500      173.89500
C        142.12700      156.25600      175.46200
C        140.81100      154.47800      173.29300
N        143.15800      153.61300      178.29300
C        143.27400      153.80700      179.72700
C        144.72200      153.83900      180.17700
O        145.01400      154.37800      181.24700
C        142.52700      152.70700      180.46800
C        141.98700      153.14400      181.80500
C        141.74800      151.96100      182.71700
N        141.41300      150.74800      181.97900
C        140.18200      150.41500      181.60700
N        139.97200      149.29000      180.94200
N        139.16000      151.20900      181.89300
N        145.63000      153.29100      179.38200
C        147.03900      153.20800      179.73700
C        147.88500      154.10200      178.84500
O        148.97100      153.72400      178.41300
C        147.53200      151.77000      179.65700
C        146.68200      150.82900      180.46100
O        146.13200      151.20600      181.49100
N        146.55800      149.59700      179.99400
N        147.39600      155.29300      178.55000
C        148.15500      156.26800      177.79100
C        148.62700      157.37400      178.72400
O        148.44100      157.31100      179.94200
C        147.31900      156.82200      176.64500
C        147.40400      156.02600      175.37000
S        146.69800      156.94000      173.99500
C        146.89800      155.76200      172.67100
N        149.24900      158.39400      178.14500
C        149.69700      159.54800      178.90300
C        149.53800      160.79600      178.05000
O        149.22900      160.73100      176.85900
C        151.14700      159.38700      179.36500
C        151.43200      160.03500      180.70700
C        152.87800      159.84500      181.11900
N        153.35800      158.50100      180.81800
C        153.05900      157.42100      181.53200
N        152.27500      157.51900      182.59600
N        153.54400      156.24000      181.18000
N        149.78000      161.94300      178.66700
C        149.56900      163.22800      178.02100
C        150.73000      163.52800      177.08000
O        151.55500      162.66500      176.77700
C        149.40300      164.31800      179.07100
N        150.79700      164.76000      176.59200
C        151.92000      165.18700      175.76500
C        152.30300      166.63300      176.06300
O        151.81600      167.56500      175.42200
C        151.58800      165.01800      174.29900
N        154.38000      156.08400      173.77400
C        154.69800      154.81900      173.13800
C        153.92600      154.57500      171.85800
O        153.12300      155.40300      171.44700
N        154.17900      153.43800      171.21900
C        153.44000      153.06500      170.02200
C        152.58300      151.85200      170.33900
O        153.00100      150.71400      170.10200
C        154.38100      152.76500      168.85800
C        155.36600      153.86700      168.47900
C        155.94400      153.60500      167.11000
C        154.68900      155.20800      168.51200
N        151.39500      152.05200      170.87300
C        150.62800      150.92200      171.39600
C        149.78500      150.22900      170.34600
O        149.37100      149.08500      170.53800
C        149.75400      151.58100      172.46100
C        149.51900      152.94100      171.92200
C        150.72400      153.33500      171.12500
N        149.52300      150.90000      169.23500
C        148.56800      150.40600      168.25800
C        149.25300      149.50000      167.24700
O        150.18900      149.92100      166.56300
C        147.89500      151.56700      167.54100
C        147.21700      152.49600      168.44600
C        147.56800      153.76700      168.70100
C        146.05800      152.23300      169.22400
N        146.70300      154.32900      169.59600
C        145.76200      153.39800      169.93200
C        145.24200      151.12100      169.39000
C        144.69300      153.48800      170.79100
C        144.18400      151.21000      170.24000
C        143.91300      152.38300      170.93200
N        148.77000      148.27700      167.13700
C        149.20900      147.41200      166.05800
C        148.71800      147.98300      164.73700
O        147.53100      148.28900      164.60800
C        148.67700      146.00000      166.24600
N        149.58400      148.14200      163.74600
C        149.16400      148.77700      162.49900
C        148.09500      147.96900      161.78800
O        148.02200      146.74800      161.91200
C        150.45500      148.82900      161.68300
C        151.27300      147.74200      162.22900
C        150.98300      147.70800      163.69000
N        147.25400      148.67500      161.04200
C        146.21600      148.06400      160.23400
C        146.33900      148.56800      158.81200
O        146.91900      149.62000      158.55200
C        144.81600      148.38400      160.75300
C        144.63000      148.13000      162.21900
C        143.16900      148.13500      162.58600
C        142.49700      149.38500      162.10400
N        141.20000      149.56400      162.79600
N        145.77100      147.81000      157.88800
C        145.72600      148.24000      156.50100
C        144.44400      147.74000      155.86200
O        144.20800      146.53300      155.78000
C        146.95900      147.75300      155.73400
C        147.27100      146.34000      156.12400
C        146.70200      147.84000      154.25800
N        143.60500      148.66200      155.42100
C        142.36200      148.28400      154.78200
C        142.63000      147.80500      153.36800
O        143.62600      148.17300      152.74700
C        141.39100      149.45700      154.76300
C        142.03300      150.76900      154.39800
C        141.20100      151.92100      154.90500
N        139.88900      151.95100      154.27400
C        139.58400      152.71600      153.23500
N        138.36600      152.68200      152.71900
N        140.49800      153.51600      152.71100
N        141.72800      146.96700      152.87000
C        141.84000      146.37800      151.54500
C        142.13800      147.41400      150.47300
O        142.92700      147.15700      149.55800
C        140.55200      145.63600      151.20900
C        140.21600      145.62500      149.74400
C        141.19300      144.80300      148.94700
O        141.63200      143.75300      149.45500
O        141.53000      145.21400      147.81900
N        141.50300      148.58100      150.57400
C        141.70300      149.62300      149.57500
C        143.17400      149.95500      149.41000
O        143.65200      150.14200      148.28800
C        140.92700      150.87800      149.96100
C        139.44400      150.66100      150.13100
C        138.73100      150.67500      148.79800
C        137.22800      150.60700      148.99400
N        136.48600      150.85500      147.73100
N        143.91100      150.03300      150.51600
C        145.33100      150.34000      150.42200
C        146.08400      149.23100      149.71400
O        146.97100      149.49900      148.89900
C        145.91800      150.57200      151.80900
C        145.21900      151.67600      152.55200
O        144.22000      152.20200      152.02100
O        145.66400      152.02100      153.66400
N        145.75900      147.97800      150.02300
C        146.42000      146.86700      149.35300
C        146.20000      146.96000      147.85600
O        147.14100      146.85600      147.06500
C        145.91800      145.52600      149.90100
C        146.08400      145.47600      151.41000
C        146.66700      144.39800      149.25500
C        145.71600      144.15100      151.99000
N        144.95400      147.17100      147.44700
C        144.65500      147.23400      146.02400
C        145.34000      148.42000      145.37000
O        145.87700      148.30000      144.26800
C        143.15000      147.30800      145.80600
C        142.75500      147.49800      144.35800
C        141.45100      148.25800      144.20500
O        141.13900      148.69000      143.07500
O        140.74100      148.43200      145.21800
N        145.34300      149.57200      146.03600
C        145.97100      150.75300      145.46100
C        147.46300      150.53900      145.27200
O        148.01300      150.81500      144.20100
C        145.71000      151.96200      146.35200
C        146.66600      153.10600      146.11900
S        146.27700      154.54200      147.13200
C        146.10300      153.78200      148.74000
N        148.13700      150.05200      146.31200
C        149.56500      149.78700      146.21800
C        149.85500      148.77400      145.12800
O        150.78500      148.94400      144.33300
C        150.08100      149.28900      147.56000
C        151.44000      148.67300      147.49800
C        151.59800      147.32500      147.27300
C        152.56300      149.44500      147.69300
C        152.84600      146.77000      147.22400
C        153.80800      148.88900      147.64900
C        153.94900      147.55100      147.41400
N        149.07600      147.70000      145.08500
C        149.32500      146.65500      144.10800
C        149.13200      147.17700      142.69600
O        149.89200      146.82600      141.79200
C        148.40700      145.47200      144.38500
C        148.97500      144.08700      144.12900
C        148.07700      143.04600      144.74000
C        149.10800      143.85400      142.65900
N        148.13700      148.03400      142.48400
C        147.92800      148.56700      141.14500
C        149.01700      149.55700      140.77700
O        149.43200      149.62600      139.61700
C        146.55600      149.21500      141.04000
C        145.42500      148.23100      141.20200
C        144.45000      148.26500      140.05300
O        144.87100      148.02200      138.90500
O        143.26000      148.54600      140.30100
N        149.49500      150.33200      141.74500
C        150.64600      151.18200      141.48000
C        151.83200      150.34500      141.02700
O        152.48800      150.65500      140.02500
C        150.99900      151.98500      142.72600
O        152.36100      152.35300      142.70200
N        152.10000      149.25800      141.74300
C        153.22800      148.41000      141.39300
C        153.02300      147.75600      140.03900
O        153.97700      147.57400      139.28000
C        153.43500      147.35300      142.46500
O        153.53000      147.96000      143.73600
N        151.78800      147.38000      139.72500
C        151.51100      146.78000      138.43000
C        151.77200      147.76900      137.31500
O        152.39600      147.43600      136.30700
C        150.07100      146.30200      138.37300
C        149.81600      145.06300      139.15900
C        148.58800      144.39100      138.62600
N        148.00400      143.46800      139.58000
C        146.82900      143.64800      140.16800
N        146.37500      142.74700      141.02300
N        146.10800      144.72500      139.90900
N        151.28700      148.99400      137.47500
C        151.54400      150.01500      136.47400
C        153.03500      150.25900      136.32000
O        153.52400      150.49200      135.21100
C        150.82500      151.30400      136.85900
O        151.08200      151.63500      138.21100
N        153.77800      150.18300      137.42000
C        155.18900      150.53400      137.37600
C        156.06500      149.40700      136.84400
O        157.10500      149.67900      136.24100
C        155.65100      150.94600      138.77000
C        157.07100      151.43500      138.85300
C        157.28300      152.15500      140.16300
C        158.65600      151.88100      140.72600
N        158.65900      152.06300      142.20000
N        155.67500      148.14900      137.04300
C        156.53800      147.02900      136.70400
C        156.02600      146.15900      135.57300
O        156.83200      145.48600      134.92800
C        156.75400      146.13700      137.92900
C        157.66100      146.73000      138.94700
C        158.98200      146.35600      139.01000
C        157.19400      147.66700      139.83900
C        159.81600      146.90600      139.94500
C        158.02800      148.21800      140.77700
C        159.33800      147.83800      140.82900
N        154.72100      146.14100      135.32300
C        154.11800      145.29600      134.30400
C        153.55500      146.09900      133.15000
O        153.05600      145.51000      132.18300
C        153.03000      144.39900      134.91400
C        153.41200      144.02400      136.33500
C        152.90100      143.13200      134.13700
C        154.45600      142.95200      136.38900
N        153.61000      147.42200      133.21800
C        153.18300      148.23100      132.10100
C        151.69400      148.29300      131.87100
O        151.26400      148.87800      130.87500
N        150.88800      147.71300      132.75300
C        149.44400      147.79600      132.59700
C        148.79000      147.48700      133.92800
O        149.14700      146.50500      134.58200
C        148.94800      146.82900      131.52600
C        148.87800      145.40000      131.98400
C        150.01000      144.61500      132.03400
C        147.68000      144.83700      132.37200
C        149.94900      143.31100      132.45000
C        147.61400      143.53100      132.79200
C        148.75100      142.77400      132.82800
O        148.68500      141.46800      133.24600
N        147.84800      148.32500      134.33100
C        147.10900      148.05100      135.54700
C        146.03900      147.00300      135.27300
O        145.57000      146.84300      134.14500
C        146.48100      149.33000      136.08900
O        145.97100      149.09200      137.40300
C        145.35300      149.78600      135.19000
N        145.66900      146.26500      136.31600
C        144.70500      145.18100      136.18600
C        143.31400      145.59800      136.64300
O        142.34900      145.49000      135.88400
C        145.17200      143.96400      136.98000
C        144.54900      142.67200      136.48600
C        145.20400      142.27800      135.18900
C        144.69400      141.59000      137.52700
N        143.19400      146.07100      137.87600
C        141.91900      146.54900      138.36700
C        141.29700      145.71900      139.46800
O        140.72200      144.65800      139.21200
N        141.41600      146.20800      140.70200
C        140.67800      145.68600      141.85300
C        140.88600      144.18700      142.04600
O        139.97800      143.45900      142.44800
C        139.19000      146.00800      141.73300
O        138.44200      145.27800      142.68700
N        142.09700      143.72100      141.76600
C        142.48400      142.34200      142.01600
C        143.69900      142.34500      142.92400
O        144.67600      143.04900      142.65400
C        142.79300      141.60900      140.71500
C        143.20600      140.17400      140.94000
O        143.12600      139.69600      142.09100
O        143.61500      139.52000      139.96000
N        143.64300      141.55700      143.99100
C        144.70800      141.53200      144.98100
C        145.24300      140.12500      145.19900
O        145.67100      139.77900      146.29900
C        144.23200      142.12700      146.30100
O        142.91800      141.64200      146.59000
C        144.19300      143.63500      146.21000
N        145.23200      139.30400      144.15800
C        145.81600      137.97900      144.27200
C        146.85100      137.76300      143.18400
O        147.82500      137.03400      143.38300
C        144.73200      136.91100      144.21100
C        143.86900      136.90300      145.44700
O        144.33600      137.20700      146.54200
N        142.59600      136.56600      145.28000
N        146.66500      138.40100      142.03900
C        147.62100      138.26200      140.95000
C        148.88700      139.00900      141.33300
O        148.95300      140.23200      141.22200
C        147.04200      138.80400      139.65100
O        147.98800      139.68100      139.03600
C        145.78500      139.57500      139.93400
N        149.87500      138.28600      141.85200
C        151.22500      138.81300      142.04800
C        152.18700      137.73400      141.56300
O        152.59100      136.85300      142.32600
C        151.50400      139.18700      143.50500
C        150.99800      140.56700      143.78600
C        150.83300      138.20300      144.43400
N        152.57200      137.79500      140.29500
C        153.51400      136.80700      139.78700
C        154.68400      137.48000      139.08300
O        155.83500      137.06500      139.24100
C        152.81100      135.78200      138.88400
C        152.26300      136.42900      137.64700
C        153.76500      134.67000      138.53300
N        154.40300      138.50700      138.28100
C        155.46100      139.16600      137.54100
C        156.26900      140.15500      138.34400
O        157.37500      140.51200      137.93300
N        155.75000      140.60300      139.47700
C        156.45600      141.59100      140.26700
C        157.71600      140.98000      140.87400
O        157.78000      139.77300      141.10600
C        155.55300      142.12100      141.36900
C        154.13000      142.39800      140.91100
C        153.27300      142.76300      142.08800
C        154.14300      143.51300      139.91400
N        158.73200      141.79200      141.13600
C        159.95300      141.26600      141.74500
C        159.68600      140.75000      143.14600
O        158.67500      141.06800      143.77000
C        160.88400      142.48000      141.77400
C        160.30300      143.43000      140.80000
C        158.84100      143.22400      140.84400
N        160.61500      139.94300      143.64500
C        160.46700      139.42000      144.99900
C        160.35900      140.49900      146.06600
O        159.54600      140.32500      146.99100
C        161.61700      138.46600      145.32300
C        161.55600      137.19500      144.52600
C        161.17200      136.02400      145.40400
N        160.77100      134.86900      144.60700
C        159.51100      134.53500      144.35200
N        158.51700      135.26300      144.83800
N        159.24400      133.47000      143.61500
N        161.11200      141.60000      146.02900
C        160.92200      142.63100      147.05200
C        159.55000      143.24900      147.01800
O        159.21700      144.01700      147.92600
C        161.99900      143.66300      146.72100
C        162.97100      142.94400      145.91300
C        162.19900      141.96900      145.11500
N        158.74900      142.95400      146.00300
C        157.36100      143.38500      145.99300
C        156.45600      142.31500      146.57400
O        155.49800      142.62700      147.28000
C        156.93900      143.76700      144.56700
C        157.75300      144.95700      144.09600
C        155.49200      144.13500      144.53200
C        157.54600      146.16500      144.93500
N        156.73000      141.04500      146.28700
C        155.97800      139.98700      146.94400
C        156.13200      140.08000      148.44800
O        155.18900      139.81000      149.19500
C        156.43900      138.62100      146.46100
C        156.12500      138.35300      145.02900
N        155.99200      137.08000      144.52600
C        155.92700      139.19200      143.98800
C        155.72200      137.14500      143.23600
N        155.67600      138.41600      142.88500
N        157.31800      140.46200      148.91000
C        157.52600      140.62200      150.34200
C        156.60300      141.69000      150.90700
O        155.95900      141.49100      151.94300
C        158.98300      140.97000      150.61900
C        159.30700      141.12600      152.08400
C        159.32200      139.80000      152.81100
O        159.43000      138.75600      152.13500
O        159.23100      139.79700      154.05700
N        156.52200      142.83500      150.23300
C        155.65600      143.90300      150.71100
C        154.19800      143.48400      150.66900
O        153.42800      143.79800      151.58000
C        155.87000      145.15900      149.88000
O        156.89500      145.95200      150.43900
N        153.79900      142.77600      149.61700
C        152.41400      142.34000      149.50600
C        152.06800      141.39300      150.63800
O        150.99600      141.48600      151.24200
C        152.16900      141.68900      148.13900
C        152.17900      142.74900      147.05100
C        150.85600      140.97500      148.13900
C        151.09500      143.74300      147.20900
N        152.96600      140.46200      150.94300
C        152.72000      139.55500      152.05100
C        152.63400      140.31000      153.36200
O        151.74000      140.05400      154.17500
C        153.81300      138.50000      152.11500
C        153.84700      137.73700      153.41400
C        155.09500      136.89000      153.49700
C        155.28700      136.09800      152.21900
N        156.52000      135.26900      152.24900
N        153.55100      141.24900      153.59000
C        153.52300      141.99800      154.83900
C        152.22800      142.77200      154.98400
O        151.64300      142.82300      156.06900
C        154.70900      142.94300      154.91600
O        155.89600      142.18200      155.15100
C        154.51900      143.92100      156.03800
N        151.75700      143.37400      153.89800
C        150.47400      144.06100      153.93700
C        149.35300      143.08700      154.25700
O        148.68800      143.20000      155.29000
C        150.21500      144.75600      152.60500
C        151.06100      145.98300      152.28400
C        150.73400      146.47500      150.90800
C        150.79600      147.06200      153.29100
N        149.14900      142.10000      153.39000
C        148.01200      141.20600      153.53600
C        148.05400      140.39700      154.81700
O        147.04100      139.79500      155.17700
C        147.92600      140.27000      152.33900
C        147.43100      140.95500      151.09500
C        146.97300      139.95500      150.07200
C        148.10500      139.04500      149.68300
N        147.81000      138.31900      148.42800
N        149.17800      140.36000      155.51200
C        149.19300      139.73900      156.82300
C        148.84700      140.71900      157.92900
O        148.60200      140.29200      159.06000
C        150.55500      139.10900      157.09500
C        151.49500      139.97900      157.88000
C        152.70100      139.21600      158.35900
O        153.04300      138.17200      157.81100
N        153.35500      139.73100      159.39100
N        148.81500      142.01400      157.62900
C        148.38500      143.03300      158.57200
C        147.01100      143.57900      158.23200
O        146.61000      144.60600      158.78300
C        149.39300      144.17500      158.61500
C        150.52900      143.93800      159.55300
N        150.36700      143.88800      160.91800
C        151.84700      143.74400      159.32300
C        151.53600      143.67000      161.49100
N        152.45100      143.58000      160.54400
N        146.28700      142.92300      157.33300
C        144.98900      143.41000      156.90500
C        144.00600      143.40500      158.06400
O        144.09200      142.59100      158.98300
C        144.45300      142.54700      155.77300
C        143.28600      143.13400      155.04900
C        142.83400      142.20200      153.96400
C        141.67200      142.78300      153.20300
N        141.28100      141.90600      152.06600
N        143.05400      144.32900      158.01100
C        142.01600      144.39800      159.03200
C        140.68200      144.60400      158.33700
O        140.39400      145.70500      157.86600
C        142.28100      145.52100      160.01600
C        141.09700      145.80900      160.89100
C        140.70900      144.91800      161.87000
C        140.36500      146.96400      160.73800
C        139.63200      145.17400      162.67000
C        139.28900      147.22600      161.53400
C        138.92600      146.32900      162.49700
O        137.84400      146.59500      163.29500
N        139.87300      143.56000      158.28300
C        138.55600      143.62900      157.67300
C        137.52300      143.75500      158.78400
O        137.35300      142.84000      159.59200
C        138.29900      142.40800      156.80000
O        136.90000      142.29800      156.53100
C        138.79100      141.15300      157.47800
N        136.85100      144.89800      158.83500
C        135.89500      145.16100      159.89200
C        134.51600      144.66500      159.49200
O        134.25500      144.32400      158.33800
C        135.83400      146.64800      160.20000
O        135.28900      147.35200      159.10500
N        133.61300      144.64700      160.47000
C        132.26800      144.15100      160.22000
C        131.57400      144.98700      159.16400
O        130.69100      144.49600      158.45500
C        131.47000      144.12300      161.52900
C        132.37200      143.69200      162.67300
C        130.32900      143.16600      161.41800
C        131.66400      143.60700      163.98400
N        131.95600      146.25400      159.03200
C        131.29000      147.12000      158.07000
C        131.47700      146.61200      156.65000
O        130.53300      146.61200      155.85400
C        131.81400      148.54500      158.20000
N        132.68400      146.16500      156.31400
C        132.94600      145.71600      154.95400
C        132.13300      144.47700      154.62500
O        131.47600      144.40900      153.58100
C        134.43400      145.44000      154.77000
C        135.29900      146.67500      154.87700
C        135.98200      146.78700      156.22300
O        136.13600      145.74800      156.89300
O        136.36000      147.91100      156.61500
N        132.16900      143.48100      155.50700
C        131.43200      142.25600      155.24000
C        129.93600      142.51900      155.22800
O        129.19900      141.89700      154.45700
C        131.82600      141.17800      156.26000
C        131.94700      141.78300      157.61600
C        130.80700      140.06900      156.28100
N        129.45800      143.46000      156.04000
C        128.03200      143.75700      156.02700
C        127.62400      144.44200      154.73400
O        126.58400      144.11500      154.15800
C        127.65900      144.60400      157.23300
C        127.33900      143.77300      158.44600
C        127.29100      144.58400      159.71200
O        127.82000      145.68700      159.77600
N        126.65700      144.03600      160.73400
N        128.43200      145.38100      154.24900
C        128.13000      145.99100      152.96100
C        128.17300      144.95600      151.84700
O        127.37200      145.00300      150.90200
C        129.10500      147.12800      152.67700
N        129.10200      144.00800      151.94400
C        129.18100      142.94800      150.95000
C        127.92000      142.09900      150.96400
O        127.32900      141.82500      149.91500
C        130.41000      142.08700      151.20900
C        130.83500      141.26900      150.02400
C        132.23200      140.71600      150.18500
O        132.77200      140.67500      151.29000
N        132.83100      140.29300      149.07800
N        127.49700      141.66600      152.14800
C        126.26200      140.90400      152.24400
C        125.08200      141.70300      151.72400
O        124.15400      141.13300      151.14200
C        126.01400      140.48300      153.68800
C        126.94600      139.40600      154.18300
S        126.53100      138.88000      155.85300
C        127.59800      137.45400      156.03100
N        125.09900      143.01900      151.91300
C        123.98200      143.83300      151.45300
C        123.90900      143.84900      149.93900
O        122.84900      143.58800      149.35600
C        124.10200      145.25100      151.99800
C        123.38700      145.44300      153.30900
C        121.91800      145.10900      153.20600
O        121.31200      145.40800      152.15600
O        121.36400      144.53400      154.16500
N        125.02200      144.16700      149.28100
C        125.00500      144.14500      147.82300
C        124.69900      142.74900      147.30600
O        124.07800      142.59700      146.24700
C        126.32600      144.66200      147.25800
C        127.55800      143.96100      147.77400
C        127.88700      142.70800      146.98900
O        127.30600      142.52200      145.90100
O        128.72500      141.90900      147.46100
N        125.09500      141.72000      148.05200
C        124.74800      140.35800      147.67700
C        123.23900      140.16900      147.66300
O        122.65500      139.81100      146.63600
C        125.41300      139.37500      148.63700
C        125.34400      137.93500      148.18800
C        124.07900      137.25300      148.64600
O        123.34200      137.85700      149.44800
O        123.81600      136.11600      148.20600
N        122.59300      140.38600      148.81100
C        121.13800      140.31500      148.88900
C        120.49200      141.06200      147.73900
O        119.56900      140.56100      147.09200
C        120.64200      140.90300      150.20600
C        120.89900      140.06500      151.41900
C        121.09000      138.70700      151.31700
C        120.93300      140.63700      152.67400
C        121.32200      137.94300      152.43100
C        121.16200      139.88500      153.79000
C        121.35600      138.53800      153.66600
O        121.58800      137.78100      154.78800
N        120.97700      142.27200      147.46900
C        120.37800      143.06600      146.40500
C        120.59000      142.42300      145.04500
O        119.78600      142.62800      144.13200
C        120.94500      144.48200      146.42400
C        120.73200      145.21800      147.74700
C        121.14800      146.66800      147.63100
C        119.29000      145.10600      148.20100
N        121.65700      141.64200      144.88900
C        121.87100      140.94900      143.62400
C        120.86400      139.82300      143.43900
O        120.08800      139.81800      142.47900
C        123.29500      140.40700      143.55300
C        124.33700      141.44600      143.20200
C        125.62600      140.79100      142.74000
N        126.10400      139.79100      143.68900
C        125.97200      138.48000      143.52200
N        126.43600      137.64300      144.43800
N        125.37000      138.00700      142.44000
N        120.86300      138.85400      144.35200
C        120.01900      137.66900      144.25200
C        118.93500      137.73200      145.31800
O        119.12000      137.22100      146.43100
C        120.86000      136.40300      144.40900
O        120.90500      136.00700      145.76500
N        117.79100      138.33500      145.03000
C        116.79800      138.57900      146.08100
C        116.13200      137.32600      146.62200
O        116.07600      137.13300      147.83900
C        115.77700      139.48400      145.38400
C        115.90400      139.15300      143.95100
C        117.34900      138.84500      143.72400
N        115.61900      136.46800      145.74200
C        114.74100      135.38600      146.16300
C        115.36700      134.01000      145.98600
O        114.66400      133.00000      146.07300
C        113.41600      135.46600      145.41200
C        113.50100      135.40400      143.89600
C        113.11900      134.02700      143.41300
C        112.59900      136.45200      143.29200
N        116.66900      133.94200      145.74400
C        117.35900      132.65500      145.72400
C        117.89200      132.31100      147.10500
O        119.07200      132.02800      147.28800
C        118.48000      132.67400      144.69600
O        119.19300      133.89000      144.75600
N        117.00600      132.34000      148.09300
C        117.40200      132.16700      149.47100
C        117.99100      133.39900      150.11700
O        118.37400      133.33800      151.29100
N        118.07400      134.51600      149.39300
C        118.65200      135.72300      149.95200
C        117.83700      136.34000      151.06700
O        118.37200      137.13800      151.84400
N        116.55600      135.99600      151.16600
C        115.71400      136.54100      152.22200
C        116.23000      136.07800      153.57600
O        116.26200      134.87500      153.85400
C        114.26800      136.10300      152.02400
C        113.38100      136.37000      153.22500
C        113.39000      137.82600      153.64200
O        113.40800      138.70000      152.75300
O        113.37800      138.09700      154.85900
N        116.62900      137.02400      154.42100
C        117.26900      136.69800      155.68300
C        116.39600      137.13500      156.84600
O        115.49900      137.96900      156.70500
C        118.63400      137.37800      155.82100
C        118.60700      138.75900      156.47700
C        117.96000      139.84700      155.63700
O        116.93200      139.59700      154.97600
O        118.49200      140.97500      155.64400
N        116.67500      136.55200      158.00300
C        116.10600      137.00200      159.25900
C        117.14700      137.81300      160.01400
O        118.34500      137.53300      159.95400
C        115.63300      135.82300      160.11200
C        116.75200      134.95900      160.66200
C        117.25300      133.95300      159.65000
O        116.44600      133.50900      158.80800
O        118.45300      133.61100      159.69000
N        116.67900      138.83500      160.71400
C        117.54200      139.72600      161.46900
C        117.19800      139.57500      162.93800
O        116.01900      139.51800      163.30100
C        117.38400      141.18200      161.00800
C        118.01200      141.35300      159.65400
C        115.92300      141.54800      160.93700
N        118.22200      139.47900      163.77600
C        117.97800      139.39900      165.20300
C        117.32100      140.67900      165.68800
O        117.57200      141.76700      165.17200
C        119.28000      139.16400      165.95500
C        119.76100      137.73900      165.88100
C        120.83600      137.44500      166.89600
O        121.31000      138.39500      167.55300
O        121.20600      136.26300      167.04000
N        116.46600      140.54000      166.69400
C        115.74500      141.67100      167.26300
C        116.42300      142.17900      168.51800
O        115.76000      142.54700      169.48700
C        114.30000      141.29100      167.54700
C        113.53800      140.87300      166.31400
C        113.56000      141.92800      165.23400
O        114.07400      141.70000      164.14300
N        112.99100      143.08700      165.52700
N        117.75000      142.17400      168.53000
C        118.52500      142.73100      169.63200
C        118.04400      144.15200      169.89400
O        117.62000      144.83800      168.95600
C        120.02300      142.69300      169.31600
C        120.50200      141.26200      169.29100
C        120.28600      143.34900      167.98600
N        118.08900      144.62900      171.13600
C        117.43200      145.90000      171.45900
C        117.84400      147.04500      170.56900
O        117.02800      147.93400      170.30300
C        117.84600      146.14000      172.91300
C        119.04000      145.30300      173.11200
C        118.81600      144.09300      172.29100
N        119.08100      147.04900      170.08100
C        119.47200      148.07600      169.12900
C        118.62800      147.99800      167.86900
O        118.22300      149.02600      167.31800
C        120.95000      147.93900      168.79100
N        118.33000      146.78700      167.41000
C        117.56400      146.64800      166.18100
C        116.13500      147.12600      166.36600
O        115.58900      147.80600      165.49500
C        117.58100      145.20200      165.70800
C        116.70000      144.95400      164.51600
C        117.29300      145.49500      163.24200
O        118.51200      145.74800      163.21800
O        116.54400      145.66700      162.25900
N        115.50900      146.78200      167.48900
C        114.15800      147.26900      167.73100
C        114.14800      148.78000      167.88100
O        113.23500      149.45300      167.39300
C        113.57100      146.62400      168.97400
O        114.15200      147.22700      170.13000
C        113.86700      145.15000      168.98600
N        115.15800      149.33300      168.55000
C        115.22300      150.78100      168.68000
C        115.35700      151.44100      167.32100
O        114.75300      152.48700      167.06900
C        116.37900      151.18000      169.58300
C        116.43600      152.67700      169.84000
C        115.10400      153.15900      170.32400
C        117.49700      152.99100      170.85200
N        116.13200      150.84400      166.42200
C        116.23700      151.42400      165.09100
C        114.93100      151.28300      164.32900
O        114.53500      152.19400      163.60000
C        117.37100      150.78100      164.30900
C        117.50700      151.34600      162.92500
C        118.02200      152.61000      162.72300
C        117.11100      150.62100      161.82300
C        118.14600      153.13100      161.46600
C        117.23300      151.13300      160.56000
C        117.75100      152.38900      160.38700
O        117.87000      152.90300      159.12000
N        114.25600      150.14500      164.46700
C        112.95200      150.00300      163.83600
C        111.99200      151.06500      164.33000
O        111.12500      151.51800      163.57900
C        112.37700      148.62000      164.10800
C        113.17000      147.49900      163.50800
C        112.40300      146.20200      163.49000
O        112.68100      145.29000      164.26700
N        111.42900      146.10900      162.59900
N        112.13000      151.47000      165.58300
C        111.27900      152.51000      166.11400
C        111.65500      153.87900      165.59700
O        110.78700      154.68000      165.24800
N        112.95300      154.15800      165.53800
C        113.39900      155.49600      165.17300
C        113.21800      155.76400      163.68900
O        112.88600      156.88500      163.29300
C        114.86000      155.67700      165.55100
C        115.13000      155.92100      167.02000
C        116.57500      156.28800      167.19600
C        114.24300      157.02600      167.49500
N        113.44400      154.75100      162.85700
C        113.49400      154.90100      161.40300
C        112.42100      155.79900      160.80200
O        112.76400      156.61500      159.93800
C        113.43200      153.49900      160.78300
C        113.22600      153.46700      159.28200
C        114.37500      154.15500      158.59900
C        113.10800      152.03600      158.82600
N        111.13800      155.70700      161.17600
C        110.13400      156.55700      160.53100
C        110.47400      158.03200      160.56100
O        110.49100      158.68600      159.51600
C        108.87000      156.26300      161.33900
C        109.04500      154.87800      161.75900
C        110.49800      154.73300      162.07500
N        110.76100      158.56800      161.73500
C        110.97900      159.99700      161.87600
C        112.33800      160.29600      162.48700
O        112.47000      161.15800      163.35400
C        109.86800      160.62800      162.70500
O        109.98100      160.23500      164.05600
N        113.37200      159.59400      162.03000
C        114.71700      159.84200      162.54600
C        115.19200      161.26300      162.28000
O        115.56900      161.96000      163.23900
C        115.68300      158.80300      161.97500
C        117.06500      158.74300      162.61800
C        117.56000      157.32000      162.66800
C        118.03400      159.59100      161.84900
N        115.21000      161.75500      161.03900
C        115.81500      163.07000      160.79400
C        115.26400      164.17900      161.66800
O        116.02500      165.05300      162.09200
C        115.51400      163.31200      159.31200
C        114.40800      162.39500      158.99400
C        114.66500      161.19100      159.79800
N        113.96700      164.16900      161.96300
C        113.43500      165.17600      162.87200
C        114.03000      165.01500      164.25800
O        114.33800      166.00500      164.92700
C        111.91500      165.09400      162.93400
C        111.22900      165.29800      161.60600
C        111.26400      164.06000      160.74400
O        111.70000      163.00100      161.18600
N        110.80800      164.18600      159.50600
N        114.20700      163.77100      164.70300
C        114.84300      163.53500      165.99100
C        116.23800      164.12800      166.01700
O        116.61500      164.82400      166.96600
C        114.90400      162.04200      166.28300
C        113.56700      161.38900      166.47500
C        112.54700      162.03800      167.13700
C        113.33100      160.11700      166.00400
C        111.33100      161.43900      167.31300
C        112.12100      159.51300      166.17600
C        111.12500      160.17400      166.83200
O        109.91200      159.55900      167.00100
N        117.02600      163.85300      164.98000
C        118.39400      164.35400      164.95400
C        118.41800      165.87300      164.92200
O        119.20100      166.50900      165.63700
C        119.14000      163.77700      163.76100
C        119.25500      162.28900      163.82800
S        119.52100      161.77200      165.52200
C        119.02200      160.06100      165.43200
N        117.56500      166.47500      164.09700
C        117.52600      167.92800      164.02100
C        117.15900      168.51600      165.37000
O        117.72800      169.52500      165.79900
C        116.54900      168.37700      162.92700
C        117.06700      167.94300      161.56500
C        116.38100      169.86700      162.95800
C        116.13900      168.27200      160.44400
N        116.21700      167.88900      166.07000
C        115.80800      168.40700      167.36600
C        116.93400      168.29900      168.37800
O        117.18900      169.24000      169.14100
C        114.57700      167.65800      167.85600
N        117.60900      167.15300      168.40900
C        118.73200      166.99600      169.32000
C        119.78900      168.05000      169.05600
O        120.31600      168.66000      169.99200
C        119.32700      165.60200      169.18700
C        118.51600      164.50100      169.85100
C        119.26400      163.19400      169.78500
C        118.23000      164.87400      171.27900
N        120.09900      168.29600      167.78600
C        121.13800      169.26600      167.47600
C        120.69300      170.67800      167.81300
O        121.50400      171.50200      168.24000
C        121.52900      169.15600      166.01200
C        122.18500      167.81200      165.74500
C        122.51700      167.66700      164.29500
C        123.42700      167.70500      166.57300
N        119.41000      170.97900      167.63100
C        118.91800      172.29400      168.01200
C        119.06600      172.51000      169.50600
O        119.52700      173.56800      169.94800
C        117.46400      172.45400      167.59200
C        117.28200      172.75900      166.12700
C        115.89800      173.31800      165.86100
C        115.72200      173.67300      164.39700
N        116.74700      174.65100      163.94500
N        118.69400      171.51100      170.30200
C        118.84100      171.63900      171.74700
C        120.30700      171.79700      172.11000
O        120.67300      172.62600      172.94900
C        118.21400      170.43600      172.46500
C        116.76900      170.26300      172.03300
C        118.27100      170.64500      173.94700
C        116.05700      169.17400      172.75200
N        121.16800      170.99500      171.48500
C        122.60000      171.11000      171.71800
C        123.06900      172.53400      171.47800
O        123.63400      173.17700      172.36800
C        123.34700      170.14300      170.80700
C        124.66500      169.54400      171.28100
C        125.05800      168.42100      170.35700
C        125.75100      170.58300      171.31600
N        122.82800      173.04300      170.27200
C        123.26800      174.38500      169.92300
C        122.70500      175.42000      170.87700
O        123.37900      176.40500      171.19100
C        122.85600      174.70100      168.49100
C        122.95400      176.15400      168.05400
C        124.38900      176.61600      168.11200
C        122.39500      176.30700      166.65600
N        121.48400      175.21400      171.36100
C        120.94800      176.12900      172.35600
C        121.66300      175.97900      173.68500
O        121.63400      176.89500      174.51100
C        119.45300      175.89600      172.53500
N        122.30300      174.83600      173.91300
C        122.95700      174.55800      175.18100
C        124.46800      174.69900      175.10900
O        125.14600      174.51000      176.12100
C        122.58800      173.16000      175.66600
N        125.01200      175.01100      173.93700
C        126.43200      175.27700      173.83400
C        126.80400      176.41700      174.77700
O        125.95100      177.22200      175.14900
C        126.79700      175.62900      172.39600
N        128.07000      176.50000      175.19100
C        128.43400      177.54000      176.16500
C        128.19600      178.94600      175.65500
O        127.86500      179.84100      176.44200
C        129.92100      177.27000      176.41500
C        130.37300      176.57700      175.20200
C        129.23800      175.70400      174.79800
N        128.36200      179.16900      174.35800
C        128.02600      180.44800      173.74800
C        127.80000      180.26800      172.25500
O        128.53900      179.54200      171.59300
C        129.12100      181.49900      173.96600
O        129.57700      181.45100      175.32200
C        128.57800      182.88600      173.67100
N        111.97800      177.51200      172.27700
C        113.22600      176.78200      172.43100
C        113.97200      177.31100      173.64900
O        115.17400      177.10400      173.80500
C        114.08200      176.87100      171.15200
C        115.12900      175.75500      171.12300
C        114.72400      178.25100      171.02000
C        114.53800      174.37900      170.99400
N        113.24800      177.98500      174.53600
C        113.85000      178.47900      175.76900
C        114.15900      177.26100      176.62000
O        113.31000      176.75200      177.35000
C        112.93100      179.45300      176.48600
C        113.68200      180.34800      177.43700
O        114.85800      180.64000      177.22800
N        113.01200      180.78700      178.49300
N        115.39700      176.78300      176.51500
C        115.75800      175.52700      177.15800
C        115.81600      175.69700      178.66700
O        115.54400      174.75700      179.42200
C        117.08500      175.00000      176.58700
C        117.06100      173.47900      176.55000
C        118.26000      175.47600      177.40600
C        115.86500      172.92200      175.83600
N        116.13900      176.89900      179.13300
C        116.30300      177.11900      180.56000
C        114.98200      177.22500      181.29700
O        114.98600      177.59400      182.47400
C        117.12900      178.37900      180.79600
C        117.32100      179.24200      179.55300
C        117.19700      180.71300      179.90200
C        118.66300      178.95700      178.90300
N        113.86200      176.90900      180.64900
C        112.56800      177.01200      181.31200
C        112.51000      176.12100      182.54400
O        111.85800      176.45600      183.53800
C        111.45200      176.65100      180.33400
N        113.19500      174.98000      182.49800
C        113.12200      174.02600      183.59800
C        113.67500      174.61700      184.88500
O        113.15900      174.34400      185.97300
C        113.88600      172.75700      183.23500
C        113.63700      172.31600      181.81300
O        114.34200      171.40100      181.34000
O        112.73300      172.88200      181.16400
N        114.72700      175.42900      184.78600
C        115.46100      175.82100      185.98300
C        114.98000      177.17000      186.50700
O        115.08200      177.45500      187.70600
C        116.97200      175.82100      185.69200
C        117.33000      176.93600      184.73400
C        117.75300      175.94500      186.97400
N        114.44500      178.01300      185.63400
C        114.06200      179.35200      186.05200
C        112.87900      179.28800      187.01400
O        111.88200      178.61900      186.72600
C        113.70000      180.20200      184.83800
C        114.82300      180.36200      183.82100
C        114.34900      181.14300      182.61200
C        116.01600      181.02700      184.46600
N        112.94800      179.97700      188.16100
C        111.85900      180.03800      189.14100
C        110.70300      180.91700      188.68600
O        109.90700      181.33400      189.52700
C        112.52900      180.64300      190.37900
C        113.99100      180.58500      190.11500
C        114.14800      180.66900      188.64200
N        118.55500      189.95500      195.53000
C        119.81900      189.55600      196.13600
C        120.81700      189.16400      195.05100
O        120.46200      188.48300      194.09000
C        119.62500      188.38800      197.12400
O        118.80700      188.81900      198.21700
C        120.95700      187.91100      197.67000
N        122.06600      189.60900      195.20300
C        123.08900      189.28500      194.21400
C        123.54200      187.84000      194.37200
O        123.94100      187.18800      193.39800
C        124.26800      190.27100      194.31900
C        123.75400      191.68600      194.47800
C        125.18100      189.90900      195.47800
N        123.47600      187.31100      195.59500
C        123.82600      185.91300      195.80800
C        122.85900      184.99600      195.07500
O        123.26700      183.98200      194.49900
C        123.83800      185.59700      197.30300
C        125.17100      185.78200      198.02700
C        125.13300      185.12100      199.39500
C        126.31400      185.22800      197.19500
N        121.57300      185.34600      195.07400
C        120.60000      184.55000      194.33800
C        120.84100      184.63900      192.84100
O        120.70900      183.64000      192.12900
C        119.18400      184.99700      194.68700
C        118.84300      184.75800      196.13400
C        119.43300      183.46000      196.64100
O        119.04200      182.37800      196.20900
N        120.39400      183.56300      197.55000
N        121.19500      185.82300      192.34200
C        121.50200      185.94800      190.92200
C        122.70300      185.09300      190.54900
O        122.70200      184.42700      189.50800
C        121.76000      187.40800      190.56200
O        122.83800      187.92500      191.31800
N        123.73100      185.08400      191.39800
C        124.91300      184.27800      191.11400
C        124.59000      182.79100      191.15600
O        125.04000      182.02100      190.29600
C        126.01700      184.61400      192.11300
C        127.38800      184.13700      191.69800
S        128.69200      185.15400      192.41000
C        128.26600      186.75100      191.72900
N        123.82700      182.36600      192.16400
C        123.43000      180.96800      192.25100
C        122.59700      180.56500      191.04600
O        122.77300      179.47600      190.49700
C        122.65800      180.72100      193.54300
C        122.59100      179.26600      193.94600
C        121.54200      179.04700      195.01800
C        120.14500      179.03300      194.42300
N        119.90700      177.83400      193.57000
N        121.69700      181.43900      190.60500
C        120.88800      181.12400      189.43800
C        121.74500      181.06300      188.18600
O        121.49900      180.24400      187.29700
C        119.77600      182.15400      189.28300
C        118.70400      181.81900      188.25400
C        118.18600      180.42000      188.49200
C        117.57400      182.82900      188.33700
N        122.76900      181.90900      188.10500
C        123.65700      181.85400      186.95700
C        124.42200      180.54900      186.88800
O        124.45600      179.88300      185.84700
N        125.05300      180.16600      187.99900
C        125.79000      178.90600      188.01300
C        124.83700      177.74000      187.79100
O        125.19300      176.74100      187.15900
C        126.60100      178.75800      189.31600
C        125.69900      178.62400      190.51000
C        127.51600      177.56000      189.23500
N        123.59200      177.87400      188.25000
C        122.61400      176.81900      188.04000
C        122.25200      176.69500      186.57000
O        122.09800      175.58700      186.05200
C        121.36800      177.09400      188.87100
C        120.47600      175.88500      188.99200
O        119.55700      175.90600      189.83600
O        120.68900      174.90800      188.24800
N        122.08900      177.82300      185.88200
C        121.76200      177.75900      184.46400
C        122.92200      177.17100      183.68600
O        122.72700      176.35500      182.77300
C        121.37900      179.15100      183.94000
C        121.27700      179.12700      182.43800
C        120.06700      179.57900      184.54100
N        124.14500      177.56100      184.03600
C        125.30200      176.95300      183.39600
C        125.32200      175.45300      183.62600
O        125.60500      174.68400      182.70400
C        126.58200      177.59100      183.91200
C        126.84700      178.92800      183.28100
O        125.98000      179.49200      182.61900
N        128.04900      179.44800      183.47600
N        125.00800      175.01900      184.84300
C        124.99400      173.59400      185.14400
C        123.91700      172.87900      184.34500
O        124.14200      171.78300      183.82100
C        124.78300      173.40400      186.64100
C        124.72000      171.97800      187.11200
C        124.75100      171.94300      188.62300
N        124.33200      170.65700      189.15500
C        123.06600      170.30900      189.33000
N        122.76700      169.11900      189.82100
N        122.09800      171.15000      189.01000
N        122.73800      173.48400      184.25900
C        121.65900      172.94800      183.44600
C        122.13100      172.70500      182.02300
O        121.96300      171.61200      181.46900
C        120.49100      173.92700      183.47600
C        119.23500      173.39800      182.87200
N        118.22900      172.83500      183.62400
C        118.80700      173.36800      181.59000
C        117.24000      172.46900      182.83000
N        117.56600      172.78000      181.59000
N        122.75200      173.71600      181.42200
C        123.18100      173.57800      180.03700
C        124.29300      172.54900      179.90300
O        124.31900      171.78200      178.93400
C        123.61900      174.93100      179.49300
C        122.52200      175.96600      179.54500
C        123.08300      177.36000      179.65800
C        123.77100      177.76700      178.37900
N        124.25500      179.16600      178.44400
N        125.21700      172.51300      180.86100
C        126.28100      171.51800      180.82200
C        125.70300      170.11400      180.82300
O        126.12300      169.25200      180.04300
C        127.21900      171.69900      182.01100
C        128.10800      172.91700      181.94800
C        129.01400      173.03700      183.16000
O        129.11600      172.06500      183.93400
O        129.63100      174.10500      183.33800
N        124.73300      169.86600      181.70000
C        124.14400      168.53800      181.78300
C        123.40400      168.20800      180.50300
O        123.44300      167.07000      180.02600
C        123.22200      168.43900      183.00300
C        122.44600      167.16100      182.94700
C        124.03000      168.49300      184.26100
N        122.71100      169.18900      179.92900
C        122.02000      168.93900      178.67100
C        123.00900      168.51500      177.60100
O        122.77000      167.56000      176.85200
C        121.23300      170.18100      178.23700
C        120.08600      170.43300      179.19800
C        120.70200      169.99000      176.84800
C        119.19000      171.53700      178.76100
N        124.13600      169.21900      177.50900
C        125.12600      168.88200      176.49400
C        125.68200      167.49400      176.74100
O        125.85200      166.70200      175.80700
C        126.24400      169.93100      176.46200
C        127.34600      169.46500      175.57400
C        125.70600      171.23400      175.96400
N        125.98100      167.17900      177.99800
C        126.50100      165.85800      178.32500
C        125.53000      164.77100      177.89500
O        125.91600      163.79700      177.23800
C        126.78200      165.77700      179.82000
C        126.81500      164.39100      180.39900
C        127.00800      164.49700      181.89400
C        126.86600      163.17000      182.58900
N        126.87900      163.34200      184.06400
N        124.25500      164.94200      178.23100
C        123.26100      163.93500      177.89700
C        123.13100      163.77300      176.39600
O        123.08900      162.65200      175.88400
C        121.92000      164.30700      178.50900
N        123.06800      164.88400      175.66800
C        122.85600      164.79000      174.23100
C        124.05200      164.15000      173.55300
O        123.90200      163.29100      172.67600
C        122.56200      166.17300      173.64800
C        121.19900      166.64400      174.11400
C        122.59100      166.11000      172.16100
C        120.81700      167.96400      173.55300
N        125.25700      164.55600      173.93900
C        126.44600      163.96800      173.34600
C        126.50100      162.47700      173.61800
O        126.79100      161.68200      172.72000
C        127.69000      164.64900      173.88900
O        128.03100      164.09200      175.13800
N        126.22000      162.07400      174.85700
C        126.28800      160.65700      175.18200
C        125.24600      159.86800      174.41300
O        125.52700      158.76800      173.92900
C        126.11300      160.45400      176.67800
N        124.03400      160.40400      174.29800
C        122.99800      159.72200      173.53300
C        123.45400      159.51700      172.10500
O        123.35700      158.41600      171.55300
C        121.68900      160.51700      173.57300
C        120.74500      159.96800      172.55900
C        121.08600      160.43800      174.92300
N        123.94200      160.58500      171.47700
C        124.35200      160.47900      170.08600
C        125.47200      159.47100      169.92700
O        125.45100      158.65200      169.00500
C        124.77700      161.83900      169.56100
C        123.61300      162.79700      169.37800
C        124.08300      164.10000      168.79000
C        122.59900      162.15200      168.48700
N        126.45100      159.49600      170.82600
C        127.57100      158.58000      170.67600
C        127.13200      157.14000      170.86300
O        127.53200      156.26000      170.09200
C        128.67700      158.92900      171.65700
C        129.85500      157.97600      171.58400
C        130.31600      157.82700      170.16800
C        130.96100      158.51200      172.42300
N        126.32600      156.87100      171.88500
C        125.86600      155.50900      172.10000
C        125.06800      155.01900      170.91000
O        125.25600      153.89000      170.44900
C        125.03200      155.43400      173.36800
C        125.85000      155.17600      174.61700
C        125.07800      155.61600      175.82300
C        126.15600      153.71300      174.69200
N        124.17400      155.85700      170.39500
C        123.39200      155.45900      169.23900
C        124.29100      155.16000      168.05500
O        124.10600      154.15300      167.36500
C        122.39400      156.55400      168.89600
C        121.18200      156.56400      169.80900
C        120.35000      157.77400      169.53700
C        120.38500      155.32400      169.55400
N        125.28200      156.01200      167.81300
C        126.17100      155.80200      166.68100
C        126.91400      154.48400      166.81000
O        126.92900      153.67100      165.87900
C        127.15300      156.96400      166.57200
C        126.57900      158.24200      165.98000
C        127.61800      159.32500      165.96800
C        126.09700      157.96900      164.59200
N        127.53600      154.25200      167.96500
C        128.31300      153.03300      168.14300
C        127.43400      151.80300      168.03000
O        127.80000      150.82800      167.36600
C        129.01900      153.04900      169.48900
C        129.98400      154.18400      169.65900
C        131.39800      153.70800      169.50600
C        131.77800      152.79600      170.63300
N        133.14900      152.27700      170.44400
N        126.25900      151.83200      168.65100
C        125.43300      150.63700      168.67100
C        124.83300      150.35900      167.30800
O        124.68500      149.19900      166.91700
C        124.34900      150.76800      169.72500
C        124.67400      150.04600      170.98700
N        124.86800      148.68500      171.02600
C        124.86900      150.49400      172.24700
C        125.15900      148.32300      172.26000
N        125.16300      149.40100      173.02100
N        124.50000      151.40100      166.55700
C        124.00200      151.17700      165.21200
C        125.09900      150.63000      164.31700
O        124.87700      149.67900      163.56300
C        123.43400      152.46900      164.64800
C        122.15200      152.88800      165.28800
C        121.40100      151.98900      166.00100
C        121.69900      154.18000      165.17300
C        120.23100      152.37100      166.58500
C        120.52700      154.56100      165.75600
C        119.79600      153.65500      166.46200
N        126.29800      151.20700      164.39100
C        127.38300      150.70300      163.56000
C        127.69000      149.25500      163.88800
O        127.99300      148.46000      162.99400
C        128.63000      151.55600      163.73000
C        129.75400      151.16000      162.80400
C        130.81600      152.22800      162.77800
C        131.95000      151.86700      161.85100
N        132.95500      152.96200      161.79000
N        127.61100      148.88700      165.16200
C        127.81300      147.48900      165.51400
C        126.67700      146.62700      164.99300
O        126.89900      145.49700      164.55100
C        127.94000      147.34600      167.02200
C        127.93500      145.92600      167.55600
C        129.01900      145.12600      166.89400
C        128.14600      145.96400      169.03900
N        125.45300      147.14200      165.03100
C        124.31100      146.34500      164.60900
C        124.30800      146.15100      163.10200
O        124.18600      145.02400      162.61400
C        123.02300      147.00600      165.06900
C        121.81500      146.32600      164.52600
O        121.80500      145.11300      164.34900
N        120.78200      147.09800      164.24000
N        124.42900      147.24000      162.35100
C        124.56400      147.17100      160.90300
C        125.05200      148.50500      160.37400
O        124.50400      149.54900      160.73100
C        123.24600      146.79800      160.24400
C        123.37000      146.50800      158.78500
N        123.66700      147.47900      157.85700
C        123.23900      145.35400      158.09400
C        123.70900      146.93600      156.65500
N        123.45500      145.64700      156.77200
N        126.06400      148.47800      159.50800
C        126.77200      149.70400      159.15700
C        125.82700      150.71700      158.54000
O        125.92200      151.91700      158.81200
C        127.94900      149.39600      158.22000
C        127.49300      148.54700      157.07500
C        128.54600      150.67700      157.70700
N        124.89100      150.25800      157.71900
C        124.04100      151.20500      157.01900
C        123.10000      151.93800      157.95200
O        122.69600      153.05300      157.63700
C        123.26200      150.49700      155.92400
C        124.09300      150.29000      154.69700
C        125.02700      151.23000      154.31700
C        123.96000      149.15200      153.92900
C        125.79500      151.05200      153.20600
C        124.72300      148.96300      152.81400
C        125.64100      149.91700      152.45600
O        126.41300      149.73300      151.33700
N        122.75900      151.36300      159.10000
C        122.01000      152.13700      160.08100
C        122.85100      153.28600      160.60900
O        122.36900      154.41800      160.74000
C        121.55300      151.23500      161.21900
C        120.75100      150.04700      160.75300
C        120.19000      149.24800      161.89600
O        120.23900      149.67600      163.04100
N        119.64800      148.08000      161.59200
N        124.11800      153.01400      160.90200
C        125.02200      154.07400      161.31200
C        125.14600      155.12900      160.23300
O        125.17700      156.32400      160.52700
C        126.38500      153.49200      161.63700
C        127.47600      154.50000      161.67300
C        127.60200      155.35300      162.73600
C        128.39000      154.58000      160.65200
C        128.60900      156.26800      162.77400
C        129.39800      155.50000      160.69000
C        129.50600      156.34200      161.75100
N        125.21500      154.70800      158.97500
C        125.33000      155.67500      157.89400
C        124.06800      156.50600      157.76600
O        124.13900      157.71000      157.52500
C        125.62800      154.96600      156.58100
C        126.84000      154.06900      156.62500
C        128.13800      154.84100      156.67100
O        128.10400      156.07500      156.50900
O        129.19700      154.21100      156.86300
N        122.90300      155.88100      157.90600
C        121.65300      156.61700      157.80100
C        121.50900      157.61800      158.92400
O        120.91400      158.68000      158.73500
C        120.47300      155.65900      157.81900
C        119.14600      156.35200      157.72600
C        118.88100      157.23700      156.70400
C        118.15500      156.11900      158.65700
C        117.67300      157.86500      156.61100
C        116.94500      156.74900      158.57300
C        116.71100      157.62200      157.54900
O        115.49900      158.25700      157.45800
N        122.02900      157.29600      160.09900
C        122.01000      158.27600      161.17200
C        123.01700      159.38300      160.91300
O        122.71100      160.56400      161.09300
C        122.28800      157.60000      162.50600
C        122.36300      158.56600      163.64700
S        122.29300      157.75300      165.23600
C        122.51600      159.15900      166.30800
N        124.21600      159.02400      160.46400
C        125.26000      160.02000      160.27600
C        124.91900      160.97200      159.14500
O        125.25800      162.15600      159.20000
C        126.59200      159.33600      160.00600
N        124.26200      160.47600      158.10300
C        123.91600      161.33800      156.98700
C        123.00200      162.45700      157.44800
O        123.29700      163.63700      157.25500
C        123.26700      160.52500      155.87400
C        123.44400      161.14100      154.51300
C        123.03400      160.21000      153.40300
O        122.02200      159.52300      153.49900
N        123.81700      160.18300      152.33500
N        121.88700      162.10400      158.07700
C        120.99500      163.13900      158.56800
C        121.57000      163.88200      159.75200
O        121.03900      164.93200      160.11700
C        119.65100      162.53600      158.92000
C        118.89900      162.06800      157.72500
N        118.32200      162.93700      156.82800
C        118.67100      160.82500      157.24800
C        117.74700      162.24800      155.86100
N        117.94300      160.96300      156.09300
N        122.63700      163.37600      160.35400
C        123.28900      164.15100      161.39200
C        124.18600      165.22000      160.80200
O        124.29600      166.30800      161.36800
C        124.08700      163.22900      162.30500
C        124.20800      163.69600      163.74600
C        122.85400      164.07400      164.26400
C        124.78400      162.59400      164.58300
N        124.81300      164.94200      159.66700
C        125.67500      165.93700      159.04700
C        124.87800      166.89900      158.17700
O        125.26300      168.06200      158.03500
C        126.79500      165.26200      158.24600
C        126.23900      164.53400      157.06500
C        127.78700      166.29000      157.79000
N        123.76000      166.44800      157.60800
C        122.89800      167.35300      156.86300
C        122.42300      168.49500      157.73200
O        122.27300      169.62100      157.25100
C        121.70100      166.60300      156.30500
C        122.01300      165.80700      155.09500
C        123.24300      165.91000      154.49600
C        121.07600      164.96000      154.54800
C        123.53600      165.18000      153.38100
C        121.36500      164.22600      153.43200
C        122.59600      164.33600      152.84700
N        122.19600      168.23400      159.00600
C        121.82100      169.27500      159.94200
C        123.00100      170.10100      160.38800
O        122.89500      170.81300      161.38800
C        121.12600      168.66300      161.15500
N        124.12100      170.01400      159.67700
C        125.32600      170.76600      160.00200
C        125.79700      170.44800      161.41600
O        125.89300      171.31800      162.27800
C        125.10200      172.26800      159.83000
C        124.47900      172.60800      158.50500
O        124.69200      171.91700      157.51100
N        123.69700      173.67700      158.47900
N        126.08800      169.17300      161.64600
C        126.66900      168.80600      162.92500
C        128.15500      169.09600      162.96700
O        128.68500      169.40600      164.03300
C        126.43100      167.33300      163.22200
S        126.99400      166.81800      164.85100
N        128.84300      168.99200      161.83900
C        130.27600      169.25200      161.80100
C        130.54700      170.70400      162.17500
O        131.32000      170.95300      163.11400
C        130.87000      168.91100      160.43000
C        130.60700      167.44900      160.09900
C        132.34200      169.20400      160.42700
C        131.21200      167.01900      158.81100
N        129.95700      171.69000      161.49900
C        130.21300      173.06800      161.91300
C        129.68600      173.35000      163.29100
O        130.25700      174.17500      164.00600
C        129.48200      173.89700      160.85500
C        129.16500      172.95300      159.77500
C        128.95900      171.65700      160.42600
N        128.62000      172.66600      163.69800
C        128.08900      172.85200      165.04000
C        129.11500      172.46100      166.08800
O        129.40300      173.22700      167.01100
C        126.82100      172.02900      165.20700
C        126.35000      171.83500      166.63600
C        126.07300      173.16800      167.28300
C        125.10900      170.98400      166.62400
N        129.67100      171.26000      165.96400
C        130.67000      170.79800      166.91700
C        131.88100      171.70900      166.88500
O        132.40700      172.10900      167.92900
C        131.05600      169.34500      166.61700
C        129.87600      168.42900      166.89900
C        132.23700      168.94800      167.44300
C        130.14300      167.00100      166.58300
N        132.34100      172.05700      165.68600
C        133.50000      172.93200      165.59200
C        133.24700      174.24600      166.31300
O        134.09600      174.72500      167.06900
C        133.85000      173.16600      164.13300
C        134.45300      171.91300      163.52400
C        134.72700      172.12800      162.06600
C        135.71700      171.57800      164.26100
N        132.07000      174.83200      166.10900
C        131.72000      176.04900      166.82600
C        131.69300      175.80400      168.32300
O        132.07200      176.67400      169.11400
C        130.36800      176.56200      166.34700
C        129.83100      177.69300      167.18300
C        128.34400      177.86800      166.99300
C        127.80600      178.90200      167.96500
N        128.19400      178.59600      169.37100
N        131.24300      174.62400      168.73100
C        131.27900      174.27500      170.14100
C        132.70100      174.27400      170.66800
O        132.92700      174.53300      171.85200
C        130.63500      172.91000      170.34800
C        130.43400      172.54900      171.77700
C        131.44800      171.97700      172.50500
C        129.22400      172.76900      172.38700
C        131.26500      171.64400      173.80800
C        129.03800      172.43600      173.69100
C        130.06100      171.87100      174.40400
N        133.66700      173.98100      169.81000
C        135.05700      173.91000      170.22200
C        135.80800      175.20100      169.99200
O        137.03000      175.22800      170.15100
C        135.75900      172.77800      169.49100
C        135.65600      171.48300      170.19200
C        136.45800      171.21300      171.26600
C        134.74000      170.54600      169.79700
C        136.35900      170.03500      171.92100
C        134.64100      169.36400      170.45100
C        135.45000      169.11000      171.51400
N        135.11500      176.27300      169.62700
C        135.76500      177.53000      169.29400
C        135.78700      178.49700      170.46400
O        135.71900      179.71100      170.26400
C        135.08400      178.17400      168.09500
C        136.04700      178.94300      167.24100
O        137.13000      179.30500      167.69000
N        135.66400      179.20000      166.00100
N        135.86700      177.98400      171.68500
C        136.02700      178.81100      172.86800
C        137.22600      178.31000      173.65200
O        137.89800      177.35600      173.25700
C        134.76800      178.79800      173.73900
C        134.64800      177.58200      174.62400
C        133.71200      176.56100      174.04500
O        132.86400      176.88700      173.22000
N        133.85500      175.31600      174.46900
N        137.49500      178.95200      174.78000
C        138.61000      178.50800      175.59500
C        138.25500      177.17900      176.23300
O        137.66800      177.14100      177.31700
C        138.95300      179.54500      176.65600
C        140.08700      179.10300      177.53700
O        140.01200      179.19800      178.75700
N        141.14800      178.59900      176.92200
N        138.61800      176.08800      175.56000
C        138.21400      174.75600      176.00100
C        138.69700      174.48800      177.41600
O        137.98900      173.88100      178.22400
C        138.72900      173.69200      175.02100
C        137.69200      173.43600      173.94600
C        139.03700      172.41200      175.74300
C        136.55700      172.60700      174.43100
N        139.91400      174.92500      177.73400
C        140.45600      174.66800      179.05900
C        139.52900      175.17200      180.14800
O        139.28300      174.46400      181.12800
C        141.82800      175.31700      179.20500
C        142.97200      174.49200      178.65900
S        143.18800      172.93700      179.53600
C        143.23000      173.50500      181.22800
N        138.99500      176.38100      179.99200
C        138.07200      176.90700      180.98900
C        136.82900      176.04000      181.08300
O        136.37500      175.70400      182.18200
C        137.69400      178.34300      180.64900
O        137.47200      178.47600      179.26000
N        136.26600      175.66600      179.93700
C        135.09300      174.80500      179.92900
C        135.34800      173.52100      180.70200
O        134.49500      173.06100      181.46600
C        134.70100      174.49700      178.49100
C        133.37000      173.82700      178.36400
C        132.22900      174.42800      178.85100
C        133.25100      172.59900      177.75000
C        131.01200      173.82500      178.73600
C        132.03700      171.98700      177.63200
C        130.92100      172.60500      178.12900
O        129.69800      172.00200      178.01600
N        136.52900      172.93300      180.52200
C        136.82600      171.66200      181.16900
C        137.03800      171.85900      182.65900
O        136.57800      171.05500      183.47700
C        138.04200      170.99700      180.50700
C        137.58600      169.91600      179.54500
C        138.93900      170.38900      181.53600
C        136.68600      170.42100      178.48600
N        137.73200      172.92200      183.04400
C        137.95300      173.14100      184.46200
C        136.82800      173.92500      185.11200
O        136.97700      174.35400      186.25900
C        139.27300      173.86900      184.69800
O        139.48300      174.00600      186.10700
C        139.22500      175.24700      184.09300
N        135.71400      174.11800      184.41400
C        134.61500      174.90500      184.95300
C        133.98600      174.20000      186.14200
O        133.24400      173.22600      185.98300
C        133.57100      175.15500      183.86900
N        134.28000      174.69900      187.33500
C        133.72200      174.16800      188.57300
C        132.37200      174.84300      188.77300
O        132.24200      175.77900      189.56500
C        134.66500      174.41900      189.74500
C        136.08800      173.92100      189.52000
C        136.11100      172.57200      188.81400
C        137.52800      172.15800      188.45500
N        137.55600      171.31600      187.22700
N        131.36800      174.36700      188.04200
C        130.04000      174.95900      188.05000
C        129.09700      174.25300      189.01000
O        127.89400      174.18000      188.74300
C        129.45400      174.94200      186.63900
C        129.63800      176.25500      185.91500
O        130.34800      176.32900      184.91500
N        128.98800      177.29800      186.40600
N        129.61200      173.72500      190.11600
C        128.80900      172.94000      191.03800
C        129.11800      173.33300      192.47300
O        130.27300      173.59100      192.82300
C        129.05400      171.44300      190.84700
O        128.64400      171.02300      189.55900
N        128.07300      173.37600      193.29400
C        128.17900      173.64900      194.72200
C        127.56600      172.46900      195.46000
O        126.47300      172.01200      195.10500
C        127.47800      174.95900      195.10700
C        128.18100      176.14800      194.45400
C        127.44600      175.12300      196.61400
C        127.36800      176.80900      193.36800
N        128.26800      171.97100      196.47300
C        127.78200      170.84800      197.26700
C        126.41900      171.13500      197.88800
O        126.20700      170.89700      199.07600
C        128.78200      170.50500      198.36800
O        128.52400      171.26900      199.53200
N        141.50900      171.17000      188.53200
C        141.03500      169.81200      188.30200
C        140.20000      169.73400      187.04000
O        140.20300      170.65200      186.22700
C        140.21700      169.31800      189.48800
C        141.00100      169.20100      190.76800
C        140.11500      168.87600      191.94700
O        138.89200      168.97000      191.86000
N        140.72700      168.49500      193.06100
N        139.46800      168.63700      186.88900
C        138.67000      168.38000      185.70000
C        137.22400      168.16600      186.11100
O        136.92700      167.23400      186.86300
C        139.19600      167.15500      184.95600
C        140.44500      167.41400      184.17400
C        140.82600      168.70100      183.86300
C        141.24000      166.36800      183.74700
C        141.97200      168.94000      183.13600
C        142.39100      166.60300      183.02200
C        142.75500      167.88800      182.71700
N        136.32900      169.01700      185.62300
C        134.90200      168.79400      185.83400
C        134.48900      167.61300      184.97500
O        134.32400      167.74300      183.76400
C        134.09600      170.03600      185.48500
S        132.38100      169.96700      186.01900
N        134.33400      166.45000      185.60700
C        134.11100      165.21100      184.87200
C        132.98700      165.34600      183.86300
O        133.04500      164.77000      182.77500
C        133.79900      164.08300      185.84400
C        133.98800      162.75200      185.24900
C        135.10100      161.98800      185.31400
C        133.03400      162.01000      184.49300
N        134.90700      160.81200      184.64500
C        133.64100      160.80300      184.13200
C        131.72400      162.24900      184.09200
C        132.98800      159.84100      183.38700
C        131.08000      161.29200      183.35400
C        131.71000      160.10500      183.00700
N        131.96300      166.11800      184.20000
C        130.83500      166.30100      183.30000
C        131.27600      166.93300      181.98700
O        131.09500      166.35600      180.90700
C        129.78600      167.15500      184.00000
C        128.60800      167.51200      183.17200
C        127.67900      168.38000      183.97900
N        128.36400      169.55100      184.50600
C        128.46700      169.83600      185.79600
N        127.92100      169.03700      186.69500
N        129.11200      170.92400      186.18300
N        131.87000      168.12400      182.06200
C        132.26200      168.83400      180.85200
C        133.27600      168.04500      180.04500
O        133.17400      167.96300      178.81800
C        132.83300      170.19600      181.20900
C        131.87300      171.03000      181.99000
O        131.06700      171.75100      181.41900
N        131.94800      170.94500      183.30700
N        134.27400      167.47500      180.71000
C        135.31200      166.75200      179.99000
C        134.75000      165.51700      179.30700
O        135.11100      165.21300      178.16400
C        136.43000      166.37600      180.94900
C        137.61900      165.63600      180.36900
C        138.03900      166.26900      179.07800
C        138.74700      165.68000      181.36400
N        133.88200      164.78300      179.99800
C        133.22100      163.64900      179.37600
C        132.45500      164.08600      178.14400
O        132.53100      163.44100      177.09200
C        132.29200      162.99100      180.38600
C        131.32000      162.03600      179.78800
C        131.70900      160.77100      179.43700
C        130.00800      162.39500      179.60600
C        130.81400      159.89200      178.90100
C        129.11500      161.51700      179.06800
C        129.51800      160.26500      178.71400
N        131.73500      165.20100      178.24200
C        130.96200      165.65700      177.09500
C        131.86500      166.03300      175.93400
O        131.55200      165.73800      174.78000
C        130.09000      166.83600      177.48800
O        130.82700      167.72900      178.28500
N        132.99100      166.68600      176.21500
C        133.88100      167.08700      175.13000
C        134.50200      165.87800      174.45200
O        134.58600      165.82100      173.21800
C        134.96400      168.02000      175.65200
S        134.39800      169.70300      175.90500
N        134.95400      164.90400      175.23700
C        135.47500      163.68100      174.64200
C        134.41800      163.03500      173.76700
O        134.71100      162.54100      172.67300
C        135.96400      162.71400      175.72700
C        137.13800      163.31700      176.47700
C        136.37200      161.42300      175.10500
C        137.74600      162.38300      177.46200
N        133.16700      163.04000      174.22100
C        132.12200      162.43000      173.41500
C        131.89600      163.20200      172.13000
O        131.66500      162.60600      171.07600
C        130.83900      162.33700      174.21200
C        130.92500      161.31300      175.28000
O        130.66100      160.14100      175.05300
N        131.31500      161.73800      176.46400
N        131.94600      164.52600      172.19300
C        131.73800      165.30200      170.98100
C        132.83000      165.01500      169.97100
O        132.56300      164.89500      168.77200
C        131.68100      166.78700      171.30800
C        130.35000      167.23600      171.88900
C        130.31600      168.72800      171.99800
C        129.23500      166.74900      171.01600
N        134.06500      164.87100      170.44000
C        135.14300      164.53100      169.52000
C        134.95200      163.14200      168.94100
O        135.17400      162.92700      167.74600
C        136.48300      164.62500      170.22300
C        136.85400      166.05600      170.54700
C        138.13500      166.08900      171.32200
C        136.98600      166.81300      169.26400
N        134.55400      162.18100      169.77000
C        134.33100      160.83900      169.25700
C        133.25100      160.84400      168.19200
O        133.36700      160.15800      167.17300
C        133.96100      159.89700      170.39200
C        135.01900      159.80300      171.45500
C        134.65500      158.79600      172.49900
N        134.58600      157.46600      171.92800
C        134.46200      156.36500      172.64800
N        134.39900      156.44900      173.96300
N        134.40700      155.18600      172.05500
N        132.20000      161.63400      168.40000
C        131.14400      161.73300      167.40100
C        131.69900      162.31500      166.11700
O        131.56300      161.73000      165.03900
C        129.97600      162.57700      167.92000
C        129.35400      161.92800      169.13700
C        128.93600      162.69000      166.86300
C        128.33700      162.79400      169.79300
N        132.32500      163.48500      166.21700
C        132.89100      164.12600      165.03900
C        133.79800      163.18400      164.27500
O        133.85800      163.23900      163.04600
C        133.65700      165.37500      165.44600
C        134.31800      166.15000      164.32600
C        133.29500      166.46000      163.29400
C        134.89700      167.41700      164.87700
N        134.49900      162.30300      164.97900
C        135.30600      161.30800      164.29100
C        134.42700      160.30000      163.57700
O        134.68200      159.94600      162.42500
C        136.22200      160.60400      165.27700
C        137.61300      161.11500      165.21400
O        138.36500      160.77000      164.31400
N        137.97500      161.95500      166.16500
N        133.39000      159.81700      164.25200
C        132.50600      158.85300      163.61600
C        131.86500      159.43300      162.37000
O        131.52300      158.69100      161.44600
C        131.43200      158.39800      164.59600
C        131.96900      157.64600      165.78600
C        132.51200      156.31000      165.37500
C        133.07200      155.57000      166.55400
N        133.18300      154.12500      166.25100
N        131.70700      160.75100      162.31900
C        131.04000      161.37200      161.18400
C        131.95000      161.45900      159.97300
O        131.51100      161.20700      158.84900
C        130.55900      162.76500      161.55900
C        129.34200      162.81500      162.46000
C        128.89000      164.23700      162.61900
C        128.25800      161.98300      161.84900
N        133.20800      161.82500      160.17600
C        134.13600      162.12000      159.09200
C        135.29400      161.14200      159.15200
O        136.33600      161.44500      159.73200
C        134.64100      163.51200      159.20900
O        135.77800      163.51300      160.07700
C        133.58700      164.39800      159.80400
N        135.13100      159.98200      158.53300
C        136.21900      159.01500      158.49400
C        135.99600      158.11700      157.29700
O        134.92100      157.53000      157.16400
C        136.28000      158.20200      159.77100
C        137.58500      157.47200      159.94500
C        137.49700      156.42500      161.02200
C        138.84500      155.80200      161.26200
N        139.77300      156.79100      161.84900
N        136.99900      158.02000      156.43000
C        136.93000      157.31100      155.16000
C        135.93900      157.94000      154.19900
O        135.58700      157.31900      153.19400
C        136.59000      155.83100      155.35000
C        137.37400      155.21200      156.43400
C        136.89200      154.64500      157.56300
C        138.79500      155.10600      156.50500
N        137.92200      154.18500      158.33700
C        139.10300      154.45800      157.70400
C        139.83700      155.49500      155.66600
C        140.40100      154.19200      158.08800
C        141.12200      155.23100      156.05000
C        141.39600      154.58600      157.24700
N        135.47800      159.15200      154.47200
C        134.57900      159.87300      153.58100
C        135.29900      161.14500      153.16500
O        135.38300      162.10000      153.94200
C        133.25600      160.16200      154.26400
C        132.64300      158.92000      154.83500
C        131.21700      159.12800      155.23000
C        130.70300      157.89600      155.92100
N        131.12400      156.68400      155.18000
N        135.82500      161.14700      151.94200
C        136.71600      162.22300      151.53600
C        136.01300      163.56800      151.56500
O        136.59700      164.56800      151.99100
C        137.27700      161.95300      150.14800
C        138.19100      163.02900      149.66100
N        138.30700      163.36300      148.33000
C        139.02900      163.85300      150.33000
C        139.17800      164.34700      148.20000
N        139.63200      164.66300      149.39900
N        134.76500      163.61800      151.10600
C        134.05800      164.89100      151.07200
C        133.94400      165.49300      152.46100
O        134.16800      166.69200      152.64800
C        132.67700      164.70600      150.46900
O        132.04900      163.58900      151.05600
N        133.59800      164.67900      153.45300
C        133.45600      165.21700      154.79600
C        134.79600      165.64300      155.36700
O        134.86500      166.61500      156.12200
C        132.77500      164.19700      155.69600
C        131.39400      163.83000      155.21100
C        130.66300      162.97600      156.20900
N        129.43000      162.44600      155.65300
C        128.78100      161.40700      156.15600
N        129.25300      160.79000      157.22400
N        127.66800      160.97600      155.58800
N        135.87500      164.95800      155.00600
C        137.18400      165.41400      155.44500
C        137.52600      166.75700      154.82200
O        138.05700      167.65200      155.49200
C        138.23700      164.37700      155.09600
O        137.65600      163.07400      155.18400
C        139.37300      164.46300      156.06400
N        137.22700      166.92200      153.53600
C        137.42700      168.22400      152.92000
C        136.57300      169.27700      153.59600
O        136.98100      170.43500      153.69000
C        137.11800      168.16400      151.43000
C        137.91900      167.12700      150.67800
S        139.67300      167.17400      151.06000
C        140.09400      168.81400      150.49100
N        135.38800      168.89900      154.07200
C        134.59800      169.83500      154.86200
C        135.33700      170.21200      156.13000
O        135.41000      171.38900      156.49100
C        133.23500      169.24300      155.19900
C        132.25000      169.30000      154.05700
S        130.59700      168.76700      154.52500
C        130.21900      169.95900      155.80300
N        135.90800      169.22400      156.80900
C        136.70800      169.50600      157.99300
C        137.81700      170.49100      157.68600
O        138.19400      171.29300      158.54400
C        137.30000      168.21700      158.54200
C        136.68700      167.73500      159.84100
C        137.27600      166.40700      160.20800
C        136.95000      168.75200      160.91000
N        138.35800      170.43200      156.47400
C        139.40900      171.37000      156.09600
C        138.82400      172.74800      155.82900
O        139.38800      173.76900      156.23400
C        140.17900      170.85200      154.87400
C        141.17200      171.88500      154.42200
C        140.87400      169.56400      155.20700
N        137.68600      172.79500      155.13900
C        137.10500      174.06200      154.71900
C        136.79300      174.93400      155.92000
O        137.08700      176.13400      155.92800
C        135.85000      173.80900      153.87100
C        134.99000      175.03900      153.84000
C        136.24100      173.40400      152.47600
N        136.22100      174.35500      156.95100
C        135.85300      175.16800      158.09800
C        137.01200      175.57700      158.90800
O        136.78600      176.12400      159.98100
C        134.84500      174.41700      158.96200
C        133.52400      174.23300      158.29600
C        132.54100      175.18900      158.40800
C        133.27600      173.11800      157.52800
C        131.33300      175.02400      157.77900
C        132.07100      172.95100      156.89800
C        131.09900      173.90300      157.02300
N        138.23200      175.34500      158.43600
C        139.43900      175.74400      159.14200
C        139.41700      175.21400      160.56900
O        139.44000      175.95700      161.54800
C        139.60800      177.26100      159.11300
C        139.99900      177.79500      157.74600
C        140.03900      179.31000      157.73300
C        138.64400      179.89300      157.83700
N        138.64700      181.36900      157.66600
N        139.35400      173.89000      160.66100
C        139.25800      173.23000      161.95200
C        140.60700      173.14900      162.64300
O        140.68300      173.25400      163.87100
C        138.68500      171.83600      161.76400
O        139.19900      171.26300      160.57700
N        141.67300      172.96000      161.87200
C        142.99600      172.71700      162.44100
C        143.38700      173.69900      163.53200
O        143.79200      173.24700      164.61400
C        144.03400      172.70700      161.31400
N        143.29200      175.01700      163.34800
C        143.67200      175.91800      164.44300
C        142.79100      175.77500      165.65700
O        143.19000      176.19400      166.74800
C        143.53800      177.30600      163.81500
C        142.53000      177.12600      162.77200
C        142.78700      175.77500      162.19500
N        141.60400      175.19800      165.50400
C        140.74400      174.94200      166.64900
C        141.14500      173.65000      167.33400
O        141.26000      173.58600      168.56200
C        139.27800      174.90100      166.20100
C        138.78900      176.30100      165.86700
C        138.43300      174.30000      167.27500
C        137.38200      176.32600      165.35300
N        141.35700      172.59800      166.54600
C        141.74200      171.31200      167.10900
C        143.05400      171.42100      167.86700
O        143.12800      171.09700      169.05700
C        141.84500      170.27200      166.00200
C        140.53200      169.97600      165.29700
C        140.73200      168.91000      164.26000
C        139.52100      169.53300      166.30700
N        144.10700      171.87800      167.19700
C        145.38900      171.91700      167.88100
C        145.43000      172.96400      168.97500
O        146.42000      173.02900      169.70700
C        146.52300      172.14600      166.88900
C        146.71000      173.55800      166.44600
C        147.67800      173.59100      165.29400
C        147.75400      174.96900      164.68500
N        148.40600      174.93900      163.34900
N        144.39200      173.77900      169.10800
C        144.26700      174.60400      170.29500
C        143.59000      173.84300      171.41900
O        143.93900      174.01500      172.58900
C        143.48500      175.87500      169.98300
C        143.56600      176.90000      171.08200
C        143.20300      178.27700      170.58300
N        141.81200      178.59900      170.86400
C        140.86000      178.64000      169.94300
N        141.15000      178.37900      168.67800
N        139.61900      178.94500      170.28400
N        142.62100      173.00000      171.07800
C        142.03800      172.11400      172.07300
C        143.03500      171.08000      172.55200
O        142.80900      170.44400      173.58200
C        140.81000      171.41100      171.50700
N        144.11800      170.89100      171.81400
C        145.13200      169.90300      172.16100
C        145.84000      170.21800      173.47000
O        146.65600      169.42500      173.94100
C        146.16200      169.81000      171.04700
C        146.81000      168.45600      170.85300
C        145.76600      167.40700      171.01500
C        147.39800      168.39700      169.47600
N        145.54900      171.37200      174.05900
C        146.23400      171.77500      175.27500
C        145.76200      171.02100      176.50400
O        146.46800      171.01800      177.51400
C        146.04800      173.26900      175.51200
C        146.64300      174.13900      174.43700
C        146.24400      175.58100      174.65000
C        146.82400      176.47500      173.57500
N        146.35500      177.88000      173.72300
N        144.58800      170.40000      176.45700
C        144.08300      169.70200      177.62900
C        144.94500      168.47900      177.89600
O        145.18500      167.65600      177.00600
C        142.61200      169.32500      177.43900
C        141.77700      170.56800      177.38000
C        142.44200      168.55100      176.16900
N        145.42400      168.35900      179.12400
C        146.38400      167.31800      179.44300
C        145.77100      165.93000      179.52000
O        146.48300      164.98100      179.85000
C        147.08300      167.64700      180.75600
C        148.26900      168.55600      180.57900
C        149.29200      167.91800      179.66700
C        150.53600      168.77400      179.54300
N        150.24600      170.07900      178.89100
N        144.48500      165.77400      179.24300
C        143.92300      164.43800      179.23500
C        144.45800      163.66000      178.04200
O        144.87900      164.23000      177.03900
C        142.40200      164.49400      179.19400
C        141.74600      163.45700      180.05000
C        141.80200      162.09600      179.42300
O        142.02900      161.96600      178.22400
N        141.60000      161.06600      180.22700
N        144.44900      162.34000      178.16500
C        145.02200      161.50200      177.12500
C        144.01600      161.14400      176.04900
O        144.35100      161.16700      174.86400
C        145.59200      160.22500      177.73300
N        142.78900      160.80600      176.43100
C        141.81100      160.41100      175.42800
C        141.38500      161.59600      174.57800
O        141.16900      161.45800      173.37000
C        140.60300      159.76900      176.09500
C        139.70700      159.04100      175.12600
S        138.34600      158.21700      175.94600
C        139.22600      157.42100      177.27400
N        141.25700      162.77100      175.18600
C        140.91900      163.95300      174.41000
C        142.01000      164.26200      173.40200
O        141.73200      164.56600      172.23600
C        140.69600      165.13800      175.33500
C        140.11400      166.32700      174.64400
S        139.19700      167.34600      175.79400
C        138.69300      168.66900      174.71400
N        143.26300      164.19600      173.83600
C        144.36300      164.37400      172.90400
C        144.28600      163.35400      171.78500
O        144.44600      163.69300      170.61100
C        145.69300      164.26800      173.63400
C        146.03400      165.48300      174.44000
C        147.45300      165.45200      174.92200
O        148.23200      164.59400      174.52100
N        147.80600      166.38800      175.78600
N        144.04000      162.09500      172.13000
C        143.98700      161.06800      171.10200
C        142.91700      161.38200      170.07900
O        143.13600      161.23300      168.87500
C        143.73200      159.70700      171.72900
C        143.13000      158.66100      170.80500
C        144.05400      158.33200      169.67300
C        142.82600      157.42200      171.59800
N        141.76200      161.84100      170.52800
C        140.68000      162.02500      169.58000
C        140.79800      163.32300      168.81000
O        140.20200      163.44600      167.73900
C        139.34500      161.92000      170.29600
C        138.96400      160.48400      170.42700
C        138.69500      159.73100      169.31200
C        138.93000      159.86400      171.65100
C        138.37400      158.42000      169.40800
C        138.60600      158.54400      171.75500
C        138.32900      157.82900      170.62600
O        138.00100      156.50400      170.70500
N        141.56500      164.28300      169.30900
C        141.91000      165.42900      168.48000
C        142.88400      165.00900      167.39100
O        142.72800      165.35600      166.21300
C        142.49000      166.55400      169.34700
C        143.15300      167.56600      168.48100
C        141.40500      167.19200      170.15000
N        143.90600      164.24700      167.77000
C        144.88700      163.80600      166.79300
C        144.26300      162.90800      165.74500
O        144.69400      162.91900      164.59300
C        146.03200      163.09400      167.49400
C        146.61900      163.96900      168.58600
C        147.66500      163.23200      169.36700
C        147.18500      165.20700      167.97600
N        143.24600      162.13500      166.11100
C        142.59100      161.30000      165.11500
C        142.05500      162.13200      163.96500
O        141.93100      161.63100      162.84500
C        141.45800      160.50000      165.75000
C        141.90600      159.43400      166.70900
C        142.33700      158.20900      165.97300
C        141.16800      157.33300      165.68200
N        140.56800      156.87100      166.94300
N        141.73400      163.39800      164.21800
C        141.24600      164.29500      163.18200
C        142.39000      165.01000      162.48600
O        142.44600      165.06300      161.25000
C        140.29400      165.32600      163.78000
C        139.08100      164.80000      164.52500
C        138.47100      165.89900      165.34300
C        138.09000      164.28900      163.53300
N        143.29300      165.58500      163.27300
C        144.43000      166.27700      162.68300
C        145.14800      165.38300      161.68600
O        145.47400      165.80800      160.57700
C        145.37900      166.74500      163.77300
C        144.95700      168.06200      164.39300
C        145.97100      168.49100      165.40400
C        144.84500      169.07600      163.30700
N        145.36600      164.12400      162.05200
C        146.03000      163.20100      161.14500
C        145.20800      162.97000      159.89300
O        145.75800      162.84100      158.79700
C        146.29600      161.87900      161.85200
C        146.75200      160.77500      160.94000
C        147.32700      159.62300      161.73000
C        147.85100      158.53800      160.81600
N        148.57300      157.49100      161.57300
N        143.88500      162.92000      160.02500
C        143.08500      162.62100      158.85300
C        143.05500      163.79800      157.90100
O        142.82000      163.61500      156.70500
C        141.66100      162.19700      159.24900
C        140.74900      163.38800      159.34000
C        141.12200      161.19700      158.25800
N        143.31300      165.00800      158.38900
C        143.27700      166.18300      157.53100
C        144.64100      166.82300      157.34000
O        144.72800      167.89500      156.73900
C        142.29800      167.21400      158.08700
C        142.85900      168.06400      159.19400
C        141.82200      168.97800      159.79100
O        140.74800      168.53500      160.18200
N        142.13400      170.26000      159.86600
N        145.71000      166.19700      157.82300
C        147.02300      166.81300      157.69000
C        147.56500      166.71500      156.27800
O        148.48200      167.46100      155.92800
C        148.01400      166.17900      158.65600
O        149.02800      167.13100      158.98000
C        148.66600      164.97700      158.02500
N        147.03100      165.81300      155.46100
C        147.49100      165.72700      154.08400
C        147.07700      166.95600      153.29300
O        147.87300      167.50800      152.53100
C        146.94800      164.46300      153.43400
C        147.20300      164.39300      151.95700
C        146.42900      163.25900      151.32500
C        146.80900      161.93200      151.93500
N        146.16600      160.80200      151.22300
N        145.84500      167.40600      153.47300
C        145.31800      168.53900      152.73400
C        145.71800      169.86800      153.33200
O        145.23400      170.90400      152.87600
C        143.79500      168.45100      152.66000
C        143.30200      167.10500      152.21200
C        143.06000      166.09900      153.12300
C        143.09300      166.83500      150.87700
C        142.62300      164.86700      152.71900
C        142.65300      165.60400      150.46300
C        142.42000      164.62500      151.38900
O        141.98000      163.39000      150.98800
N        146.57900      169.88100      154.33600
C        146.93800      171.13000      154.98200
C        148.17600      171.77700      154.38900
O        148.57200      172.84900      154.84900
C        147.14600      170.91200      156.47400
C        145.85800      170.98800      157.27400
C        146.16900      170.98000      158.74000
C        145.12500      172.24300      156.90100
N        148.79900      171.16200      153.39600
C        149.91900      171.79800      152.73600
C        151.23300      171.63100      153.46500
O        151.29300      171.75100      154.69200
N        152.29200      171.36800      152.69700
C        153.60600      171.09900      153.26800
C        153.99600      172.14600      154.29000
O        154.49300      171.82000      155.37200
C        154.65100      171.04500      152.16200
C        155.35300      169.72400      152.04200
C        156.67400      169.89900      151.32700
N        156.50400      170.58400      150.05300
C        156.09600      169.99100      148.93800
N        155.81000      168.69700      148.93800
N        155.97100      170.69200      147.82100
N        153.77800      173.41600      153.95800
C        154.17100      174.49000      154.85700
C        153.61900      174.25800      156.25300
O        154.34900      174.33900      157.24700
C        153.69700      175.82900      154.30600
C        154.19200      177.00400      155.10500
C        155.69200      176.97700      155.29700
O        156.18700      177.06500      156.41900
N        156.42700      176.86000      154.19900
N        152.33400      173.91800      156.34200
C        151.73900      173.66400      157.64500
C        152.48500      172.55900      158.37100
O        152.85700      172.71200      159.53900
C        150.26600      173.30700      157.49200
C        149.56200      173.22800      158.79100
C        149.02400      174.25800      159.49300
C        149.32100      172.05200      159.55600
N        148.45800      173.79600      160.65000
C        148.62400      172.44000      160.70700
C        149.62000      170.70600      159.37500
C        148.23600      171.53700      161.67300
C        149.22800      169.81300      160.33100
C        148.54500      170.22700      161.46500
N        152.73100      171.44200      157.68600
C        153.52600      170.38000      158.28700
C        154.86300      170.92300      158.75300
O        155.29800      170.66400      159.87800
C        153.72800      169.24500      157.29000
C        152.45200      168.57100      156.88000
C        152.72900      167.31800      156.10000
N        153.04800      167.60800      154.71200
C        152.13500      167.76200      153.76400
N        150.85300      167.66000      154.06400
N        152.49900      168.02200      152.51900
N        155.51300      171.71500      157.90700
C        156.80800      172.26600      158.26700
C        156.71200      173.19600      159.46200
O        157.69600      173.36700      160.18500
C        157.40000      172.99600      157.06500
C        158.81900      173.47500      157.24800
C        159.33600      174.09800      155.96500
C        160.77400      174.55400      156.10800
N        161.30200      175.10200      154.82900
N        155.54700      173.78400      159.69900
C        155.41300      174.72700      160.79600
C        155.07500      174.02300      162.10000
O        155.67300      174.31100      163.13900
C        154.34600      175.76400      160.45900
O        154.37700      176.07200      159.07900
N        154.12600      173.10100      162.06200
C        153.70000      172.37000      163.24500
C        154.34500      170.99700      163.21100
O        154.00000      170.16600      162.36900
C        152.18400      172.25800      163.29300
C        151.51100      173.47500      162.74500
O        151.10500      173.50200      161.59000
N        151.38900      174.50000      163.56900
N        155.28400      170.76500      164.11500
C        155.90400      169.46100      164.26600
C        155.55000      168.79800      165.57800
O        155.33900      167.58500      165.61100
C        157.42200      169.57800      164.15600
C        157.93200      169.49800      162.74000
S        157.46600      167.96600      161.93300
C        158.10800      168.25700      160.29700
N        155.48100      169.57000      166.66200
C        155.05800      169.00600      167.93400
C        153.73200      168.28200      167.78800
O        153.54500      167.18800      168.33300
C        154.95900      170.10500      168.98500
C        156.28800      170.72700      169.33500
C        156.13300      171.75100      170.44400
C        157.46900      172.37300      170.82500
N        158.12000      173.06300      169.68000
N        152.80600      168.85700      167.02700
C        151.57400      168.13800      166.75900
C        151.82700      166.93300      165.87200
O        151.17800      165.90000      166.03900
C        150.54600      169.05300      166.11400
O        150.65900      168.95100      164.69400
C        150.78900      170.48300      166.53000
N        152.77200      167.02900      164.94000
C        153.08300      165.86600      164.12000
C        153.76700      164.79000      164.94300
O        153.52500      163.59700      164.74000
C        153.94900      166.27100      162.93900
C        153.23400      167.15400      161.95500
S        152.26500      166.21200      160.77900
C        153.54100      165.71900      159.63500
N        154.60600      165.18800      165.89300
C        155.17500      164.21100      166.80900
C        154.08600      163.52400      167.62000
O        154.10800      162.30000      167.80000
C        156.17300      164.88800      167.73400
O        156.16600      164.26200      168.99900
N        153.12600      164.29700      168.12400
C        152.03400      163.70700      168.88600
C        151.24100      162.73400      168.03100
O        150.89500      161.63700      168.47600
C        151.12900      164.80400      169.43400
N        150.93500      163.12600      166.79800
C        150.22300      162.23800      165.88900
C        151.01100      160.96200      165.67700
O        150.44300      159.87300      165.55200
C        149.95600      162.95100      164.55600
C        148.96900      164.08800      164.75100
C        149.42500      161.98600      163.54300
C        148.58900      164.75600      163.47600
N        152.33400      161.07700      165.62200
C        153.17100      159.89700      165.46200
C        153.01200      158.95900      166.64500
O        152.78200      157.75800      166.47400
C        154.62400      160.32700      165.30000
C        155.60700      159.20000      165.17000
C        155.78000      158.54700      163.97100
C        156.38000      158.80400      166.24200
C        156.68100      157.52700      163.84600
C        157.28200      157.78200      166.12400
C        157.42600      157.15000      164.92400
O        158.32600      156.12800      164.79300
N        153.10900      159.49600      167.85700
C        153.07000      158.64200      169.04100
C        151.69100      158.03300      169.24600
O        151.54400      156.81100      169.33100
C        153.47400      159.42900      170.28000
C        154.69300      160.27600      170.10900
C        155.96000      159.49600      170.27800
O        155.96100      158.27300      170.22300
N        157.05700      160.20100      170.49200
N        150.66300      158.87500      169.32900
C        149.37300      158.44500      169.85700
C        148.57000      157.63400      168.85100
O        148.16500      156.50700      169.13500
C        148.57300      159.66100      170.30600
C        149.23200      160.44000      171.40200
C        149.39900      159.58500      172.62400
C        150.14500      160.34000      173.68800
N        149.55400      161.68700      173.86400
N        148.30300      158.20200      167.68100
C        147.35700      157.59500      166.75900
C        147.91400      156.30100      166.18700
O        149.12800      156.11200      166.08200
C        147.02000      158.59200      165.64300
C        145.93600      158.05100      164.75100
C        146.58900      159.88400      166.24900
N        147.01100      155.39400      165.82500
C        147.39500      154.18700      165.11300
C        147.99100      154.54600      163.76200
O        147.62000      155.54400      163.14500
C        146.18200      153.28200      164.92200
C        146.41000      152.11800      163.99900
C        145.28700      151.12500      164.09400
N        145.29800      150.42800      165.36600
C        144.23200      149.85500      165.90100
N        143.07500      149.90700      165.26900
N        144.31900      149.23800      167.06500
N        148.93200      153.73100      163.30500
C        149.59000      153.94700      162.02600
C        149.03800      152.98000      160.99300
O        148.93700      151.78000      161.25200
C        151.09900      153.76600      162.15400
C        151.77500      154.88200      162.87900
N        152.15200      156.05000      162.25700
C        152.13400      155.01300      164.17700
C        152.71800      156.85200      163.14000
N        152.71900      156.24700      164.31200
N        148.67700      153.50400      159.83400
C        148.31300      152.66700      158.70700
C        149.53500      152.46000      157.83400
O        150.30900      153.39000      157.60900
C        147.20000      153.30600      157.88300
C        146.01800      153.77400      158.68600
C        145.49500      152.65600      159.54100
N        144.25700      153.00700      160.21700
C        143.05700      152.62700      159.80400
N        142.93100      151.89100      158.71300
N        141.98400      152.98100      160.48700
N        149.71100      151.24100      157.34800
C        150.80000      150.98900      156.42300
C        150.54100      151.70500      155.10900
O        149.39700      151.87700      154.68500
C        150.96300      149.49700      156.17300
C        151.06200      148.62900      157.41400
C        151.49300      147.25400      157.01100
C        152.04300      149.22200      158.38500
N        151.62400      152.13300      154.46600
C        151.55600      152.84800      153.19600
C        150.70300      154.10500      153.29500
O        150.12300      154.55500      152.30600
C        151.04000      151.94800      152.07500
C        152.15400      151.28000      151.32400
O        153.25800      151.81100      151.23400
N        151.87800      150.11000      150.77500
N        150.61400      154.67800      154.48500
C        149.92300      155.94100      154.64600
C        150.85700      157.08700      154.30100
O        152.07500      156.98800      154.45300
C        149.41600      156.09800      156.07200
C        148.24300      157.03700      156.16400
O        147.11100      156.60300      155.87100
O        148.45300      158.21300      156.52300
N        150.27600      158.18400      153.83500
C        151.05600      159.32200      153.37900
C        150.58600      160.59400      154.04300
O        150.49400      161.64500      153.41300
C        150.98400      159.45800      151.86600
C        149.61600      159.16100      151.33400
O        148.70300      158.97100      152.15800
O        149.45000      159.10700      150.09900
N        150.27700      160.52600      155.33100
C        149.92900      161.74600      156.04000
C        151.14600      162.64200      156.20600
O        151.05200      163.86200      156.04100
C        149.32100      161.40700      157.39300
C        150.26300      160.71100      158.28500
C        150.61200      159.40500      158.23700
C        151.00000      161.28600      159.36000
N        151.51700      159.12200      159.22100
C        151.77100      160.26600      159.92600
C        151.07600      162.56400      159.90300
C        152.60900      160.48300      161.00300
C        151.90500      162.77400      160.97000
C        152.66200      161.74300      161.50900
N        152.30200      162.05800      156.50900
C        153.46800      162.86600      156.83100
C        154.09100      163.51200      155.60900
O        154.87800      164.45000      155.75700
C        154.51500      162.01900      157.54000
N        153.77300      163.03500      154.41100
C        154.35400      163.63100      153.21600
C        153.31400      163.86200      152.13300
O        153.66800      163.91600      150.95200
C        155.47600      162.76300      152.67100
C        155.04200      161.40300      152.19400
C        154.75800      161.17300      150.86400
C        154.94000      160.34700      153.06800
C        154.37200      159.94200      150.42400
C        154.55500      159.10800      152.63400
C        154.27600      158.91100      151.31100
O        153.88900      157.67300      150.87000
N        152.04700      164.00400      152.50700
C        151.00000      164.11200      151.51200
C        151.24300      165.25400      150.54800
O        151.75300      166.31600      150.91300
N        150.86900      165.02100      149.29300
C        151.11600      166.00000      148.24400
C        150.01100      167.04500      148.19000
O        150.26700      168.24400      148.33800
C        151.24700      165.29000      146.89700
C        151.69400      166.21800      145.79600
O        152.50600      167.11500      146.01800
N        151.16100      166.01400      144.59900
N        148.77500      166.59900      147.98800
C        147.64600      167.48400      147.73000
C        147.41800      168.51300      148.82700
O        146.76800      169.53400      148.60100
C        146.37600      166.66300      147.53900
C        145.25100      167.47700      146.95700
O        145.18900      167.60800      145.71800
O        144.43300      167.99900      147.74000
N        136.84200      167.22500      144.58500
C        135.95300      166.43100      145.42300
C        134.49500      166.83000      145.20600
O        134.14300      168.00700      145.25600
C        136.33200      166.58000      146.89500
C        136.52300      167.99500      147.31700
C        137.63100      168.76400      147.12900
C        135.57500      168.81600      148.00000
N        137.43300      170.01500      147.65400
C        136.17600      170.07200      148.19500
C        134.27600      168.61200      148.46500
C        135.52400      171.11700      148.83400
C        133.63100      169.64900      149.09800
C        134.25400      170.88500      149.27800
N        133.64900      165.83200      144.96500
C        132.24300      166.05400      144.64100
C        131.40800      165.69700      145.86500
O        130.93900      164.57300      146.03100
C        131.85000      165.22500      143.43200
C        132.41100      163.82400      143.49600
O        131.66100      162.89500      143.85900
O        133.61200      163.65500      143.20300
N        131.22200      166.68800      146.73300
C        130.49500      166.46200      147.97500
C        129.09000      165.94500      147.70300
O        128.74100      164.81600      148.07400
C        130.45000      167.75700      148.78000
C        129.46800      167.73600      149.90100
C        129.67600      166.93100      151.00300
C        128.34000      168.52600      149.85900
C        128.77500      166.91200      152.04400
C        127.43300      168.51100      150.89600
C        127.65100      167.70200      151.99100
N        128.27500      166.75800      147.03300
C        126.87400      166.41600      146.83800
C        126.71000      165.10000      146.09000
O        125.76500      164.35200      146.35600
C        126.16800      167.55000      146.09800
C        124.68100      167.34800      145.93300
C        123.98200      167.08300      147.24800
O        123.64900      165.94200      147.56700
N        123.74900      168.13800      148.01700
N        127.63000      164.78200      145.18200
C        127.49400      163.55900      144.39900
C        127.75600      162.32900      145.25400
O        126.97300      161.37000      145.24500
C        128.44600      163.59500      143.20800
N        128.86800      162.33300      145.98700
C        129.16100      161.22800      146.88900
C        128.04300      161.04400      147.90000
O        127.64300      159.90900      148.20300
C        130.49000      161.47800      147.59200
C        130.66500      160.69500      148.86000
C        131.90400      161.10400      149.61600
O        132.72000      161.85900      149.05300
O        132.06100      160.67600      150.77600
N        127.51700      162.14900      148.42600
C        126.37400      162.06500      149.31800
C        125.23000      161.35600      148.61700
O        124.90400      160.23100      148.98200
C        125.94400      163.45000      149.78500
C        126.95700      164.11800      150.68300
C        127.32200      163.26500      151.87200
O        126.40800      162.67600      152.48100
O        128.52100      163.18200      152.20100
N        124.68500      161.95300      147.55500
C        123.53000      161.38000      146.87300
C        123.75500      159.95000      146.40100
O        122.78000      159.27900      146.05300
C        123.13200      162.25500      145.68300
S        121.81400      163.44100      146.03400
N        124.99700      159.46800      146.36900
C        125.21000      158.04900      146.09700
C        125.07100      157.21500      147.36600
O        124.38400      156.18100      147.38100
C        126.58300      157.83200      145.47000
N        125.73400      157.64400      148.43800
C        125.58200      156.95100      149.71100
C        124.12600      156.93600      150.15300
O        123.64600      155.94600      150.71200
C        126.44900      157.61700      150.77000
C        126.36300      156.99800      152.15600
C        126.96400      155.61800      152.12700
C        127.06900      157.87900      153.15800
N        123.42400      158.04400      149.93500
C        122.00900      158.13200      150.25600
C        121.22300      157.05600      149.53500
O        120.33400      156.43000      150.11800
C        121.49000      159.51400      149.87800
C        120.11800      159.87400      150.39300
C        119.61300      161.09400      149.63700
N        118.92900      162.06100      150.48900
C        118.64800      163.30600      150.11700
N        118.99700      163.73100      148.91100
N        118.02400      164.12700      150.95000
N        121.53000      156.83300      148.26000
C        120.83800      155.79000      147.52000
C        121.12500      154.42800      148.12000
O        120.21700      153.60600      148.27900
C        121.24800      155.82200      146.05200
N        122.38400      154.17600      148.46600
C        122.72400      152.90700      149.10300
C        121.91500      152.70000      150.37700
O        121.29600      151.64500      150.58600
C        124.21400      152.87400      149.40500
C        124.85900      151.61100      148.94300
O        124.22100      150.56300      148.89300
N        126.13100      151.69400      148.58800
N        121.91000      153.71500      151.23900
C        121.19800      153.64900      152.51200
C        119.72700      153.36100      152.28100
O        119.14800      152.45900      152.89400
C        121.36800      154.96000      153.29000
C        122.77800      155.08900      153.83700
C        120.36700      155.02600      154.39800
C        123.03200      156.42900      154.45400
N        119.08900      154.16300      151.43100
C        117.65800      154.01100      151.23300
C        117.32800      152.66100      150.62600
O        116.27900      152.09300      150.93000
C        117.11400      155.14600      150.36900
C        117.44700      155.03400      148.89900
C        117.00500      156.24600      148.10800
O        116.33300      157.12300      148.68600
O        117.33400      156.32500      146.90700
N        118.21400      152.11100      149.79700
C        117.98000      150.76400      149.29900
C        117.97000      149.77200      150.44600
O        117.07200      148.92700      150.54900
C        119.04000      150.39000      148.26900
C        118.86900      151.09300      146.94000
C        119.50800      150.31600      145.80400
N        120.69100      149.58500      146.23900
C        121.89800      150.12400      146.35800
N        122.08200      151.40600      146.07800
N        122.92000      149.38400      146.76100
N        118.95900      149.87100      151.33200
C        118.99200      148.98100      152.48800
C        117.72100      149.10700      153.31600
O        117.10400      148.10300      153.69400
C        120.21500      149.28800      153.34400
C        120.10000      148.81100      154.75400
C        120.35000      147.49900      155.07100
C        119.75800      149.67700      155.76500
C        120.25800      147.06300      156.36400
C        119.66200      149.24000      157.05800
C        119.91100      147.93200      157.35700
N        117.32600      150.34100      153.61800
C        116.17100      150.56500      154.47600
C        114.90900      150.01900      153.83800
O        114.11300      149.34400      154.49300
C        116.01100      152.05000      154.77200
C        116.75800      152.46700      155.99800
O        117.35100      151.64000      156.68000
N        116.74200      153.75500      156.29300
N        114.70300      150.31000      152.55600
C        113.51800      149.81000      151.88300
C        113.51500      148.29700      151.83100
O        112.45000      147.67800      151.89500
C        113.42700      150.38700      150.47500
N        114.68500      147.67600      151.73200
C        114.69400      146.22500      151.64200
C        114.38700      145.58600      152.98400
O        113.68500      144.57200      153.04500
C        116.03400      145.72800      151.11900
C        115.97500      144.28700      150.67900
C        117.27600      143.59000      150.92600
N        117.61700      143.59300      152.33800
C        118.86200      143.54700      152.78200
N        119.85400      143.49400      151.91300
N        119.11700      143.55400      154.07900
N        114.89700      146.15500      154.07000
C        114.74800      145.50100      155.36100
C        113.55500      145.98600      156.17000
O        113.21400      145.34800      157.16800
C        116.01900      145.66200      156.19400
C        116.65000      144.33200      156.53800
C        118.06100      144.47300      157.05900
N        118.09800      144.98600      158.42000
C        119.03800      144.67500      159.30100
N        120.01200      143.84800      158.96300
N        118.99900      145.18400      160.52000
N        112.90600      147.07800      155.77500
C        111.80000      147.58900      156.57500
C        110.62200      148.03900      155.72400
O        109.80300      148.83700      156.18900
C        112.26600      148.73900      157.45500
C        113.43800      148.36400      158.31200
C        113.27700      147.55900      159.41800
C        114.70700      148.79500      158.00000
C        114.34600      147.20600      160.19500
C        115.77900      148.45100      158.77400
C        115.59500      147.65600      159.86800
O        116.67000      147.30700      160.64300
N        110.52500      147.56700      154.49000
C        109.35400      147.80300      153.66300
C        108.98900      146.53800      152.90900
O        108.72600      146.56400      151.70300
C        109.58000      148.96300      152.70100
C        108.29700      149.65000      152.32400
O        107.23100      149.01000      152.43100
O        108.35200      150.83100      151.92300
N        108.99000      145.40400      153.61400
C        108.72700      144.11400      152.98600
C        107.36100      144.05600      152.32000
O        107.12400      143.16800      151.49500
C        108.83400      143.00000      154.02200
C        109.78000      143.30700      155.16200
C        109.49500      142.41400      156.35300
N        109.95100      141.04700      156.12900
C        109.67700      140.02900      156.93600
N        110.13700      138.81700      156.65600
N        108.94100      140.22000      158.02100
N        106.45400      144.96600      152.67200
C        105.16700      145.02900      151.99300
C        105.35100      145.34600      150.51500
O        105.02400      144.53400      149.64300
C        104.27400      146.07100      152.66700
N        105.89300      146.52500      150.21300
C        106.08600      146.91800      148.82600
C        107.26300      146.21200      148.17000
O        107.32200      146.15800      146.93800
C        106.28300      148.43100      148.73000
C        106.69800      148.89900      147.37000
N        108.00500      148.85400      146.93600
C        105.97800      149.40400      146.34200
C        108.07300      149.31800      145.70100
N        106.85600      149.65900      145.31700
N        108.18700      145.66800      148.95900
C        109.43700      145.14800      148.42000
C        109.19200      144.14100      147.30400
O        108.35600      143.24200      147.42500
C        110.25800      144.50400      149.53600
O        110.42000      145.40300      150.61600
N        109.93200      144.31300      146.20800
C        109.89700      143.45200      145.03300
C        108.49600      143.37400      144.44000
O        107.85700      142.31600      144.49300
C        110.40200      142.05200      145.37800
C        111.76600      141.77200      144.79500
O        112.50800      142.69300      144.45800
N        112.10400      140.49600      144.66600
N        107.99000      144.46100      143.85200
C        106.64700      144.42400      143.26300
C        106.56500      143.60900      141.99000
O        105.45700      143.28200      141.55400
C        106.35900      145.90000      142.98200
C        107.70300      146.46500      142.68500
C        108.67900      145.73100      143.57100
N        107.70000      143.27400      141.38500
C        107.69200      142.49800      140.15300
C        107.11800      141.10700      140.37800
O        106.27000      140.64300      139.60700
C        109.11100      142.40900      139.60600
C        110.12200      142.12800      140.69200
O        110.79400      141.07800      140.63800
O        110.22300      142.95600      141.61900
N        107.56200      140.43200      141.43100
C        107.16600      139.05700      141.71500
C        106.20600      139.06400      142.89600
O        106.62000      139.22600      144.04700
C        108.38500      138.19000      141.99600
C        108.91500      137.49700      140.78600
C        108.14000      136.58400      140.10600
C        110.18700      137.76400      140.32300
C        108.62400      135.94700      138.99000
C        110.67600      137.12700      139.20600
C        109.89300      136.21800      138.54000
N        104.92400      138.88400      142.60400
C        103.90400      138.84300      143.63100
C        103.03700      137.60500      143.45600
O        102.77900      137.17600      142.32700
C        103.02000      140.09200      143.58200
C        103.77600      141.41500      143.65200
C        102.84500      142.57500      143.35800
C        104.42700      141.56700      145.01500
N        102.58400      137.00500      144.54800
C        101.69300      135.85000      144.44800
C        100.26500      136.28700      144.14900
O         99.90400      137.46000      144.24300
C        101.79400      135.20000      145.83400
C        102.91200      135.92300      146.54500
C        102.96300      137.27800      145.94000
N         99.44800      135.30800      143.77800
C         98.02100      135.51000      143.57300
C         97.27700      134.51200      144.44900
O         97.62600      133.32700      144.48800
C         97.62600      135.36400      142.09100
C         98.28800      136.45100      141.27500
C         98.02800      134.00600      141.55100
N         96.27200      134.99500      145.17600
C         95.59200      134.13800      146.13300
C         94.72000      133.13100      145.40500
O         93.55900      133.40900      145.09400
C         94.75900      134.96500      147.11200
C         94.49900      134.23100      148.41700
O         94.84500      134.76500      149.49200
O         93.94200      133.11800      148.36500
N         95.27600      131.95200      145.13700
C         94.52900      130.91100      144.45000
C         93.41500      130.32700      145.30200
O         92.61600      129.54300      144.78300
C         95.47600      129.79900      144.00700
C         96.74300      130.33500      143.38200
O         96.70500      131.26900      142.58400
N         97.87600      129.75800      143.75200
N         93.34200      130.67300      146.58400
C         92.26900      130.15900      147.41700
C         90.93600      130.76200      146.98800
O         90.87400      131.72600      146.22200
C         92.54000      130.44800      148.89200
S         94.24700      130.15900      149.40700
N         89.85700      130.18100      147.50200
C         88.51100      130.49000      147.04500
C         87.94600      131.75200      147.65300
O         86.72800      131.93900      147.61500
C         87.57600      129.31900      147.33500
C         87.45700      128.29200      146.21600
C         88.75800      127.53800      146.02800
C         86.32800      127.34000      146.52600
N         88.78000      132.61900      148.22500
C         88.29300      133.93100      148.62500
C         87.91900      134.78500      147.42500
O         87.14100      135.73200      147.57000
C         89.34200      134.65700      149.46000
C         90.55700      135.10400      148.67900
C         91.31200      136.21200      149.38300
O         90.83300      136.77800      150.36600
N         92.49900      136.52600      148.88700
N         88.45400      134.46700      146.24700
C         88.13300      135.23900      145.05400
C         86.72200      134.94700      144.57000
O         86.02700      135.85300      144.09900
C         89.13500      134.93100      143.95000
O         88.89000      133.64300      143.42000
N         86.28300      133.68900      144.68700
C         84.99700      133.25800      144.13800
C         83.88200      134.21400      144.51600
O         82.95000      134.43400      143.73400
C         84.68400      131.82200      144.59800
C         83.51800      131.25600      143.81300
C         85.90600      130.95300      144.42800
N         83.96100      134.81200      145.70000
C         83.06100      135.89200      146.07200
C         83.79900      137.21200      146.24000
O         83.20100      138.19300      146.69400
C         82.29300      135.53700      147.34800
C         81.35600      134.32600      147.27100
C         80.29800      134.38800      148.35900
C         80.68800      134.23400      145.90800
N         85.07600      137.26400      145.88000
C         85.84200      138.49200      145.97200
C         85.55800      139.45300      144.83600
O         84.41400      139.59800      144.40400
N         69.18800      142.12000      131.88900
C         69.96300      141.22000      132.73400
C         69.26000      139.87700      132.88100
O         69.81100      138.93800      133.45500
C         70.20700      141.84800      134.09800
N         68.03900      139.79400      132.36200
C         67.26600      138.55800      132.41300
C         67.71500      137.61000      131.31300
O         67.72500      136.39200      131.49300
C         65.77800      138.85100      132.29700
N         68.08100      138.17900      130.17000
C         68.57800      137.39400      129.04900
C         69.85700      136.67300      129.44700
O         70.06200      135.52000      129.06200
C         68.81200      138.27800      127.83400
N         70.68800      137.35100      130.23900
C         71.94200      136.79200      130.74800
C         71.70400      135.51600      131.54600
O         72.63300      134.75900      131.83200
C         72.67100      137.82000      131.59900
N         70.44700      135.29700      131.91100
C         70.02700      134.07700      132.57300
C         69.40300      133.12800      131.56000
O         69.83400      131.98200      131.40000
C         69.05200      134.38300      133.70000
N         68.38100      133.63200      130.87600
C         67.55700      132.82600      129.98400
C         68.37300      132.14600      128.89200
O         68.33700      130.92500      128.75800
C         66.46600      133.68500      129.36300
N         69.11300      132.93500      128.12200
C         69.87300      132.39600      127.00300
C         70.99300      131.48400      127.48600
O         71.23000      130.41700      126.91600
C         70.43600      133.52400      126.15200
N         71.68000      131.91400      128.53900
C         72.78900      131.15100      129.09300
C         72.31500      129.77700      129.54200
O         73.05400      128.79700      129.44600
C         73.43100      131.90200      130.24900
N         71.08000      129.71100      130.03000
C         70.49000      128.43900      130.43100
C         70.08200      127.64600      129.20300
O         70.26000      126.43000      129.13800
C         69.29800      128.66400      131.34900
N         69.53900      128.35400      128.22200
C         69.05600      127.73300      126.99900
C         70.20500      127.26500      126.11800
O         69.97600      126.67900      125.06000
C         68.16200      128.69800      126.23500
N         71.43200      127.53500      126.55300
C         72.63200      127.11600      125.82900
C         72.61400      125.63200      125.46700
O         73.22100      125.22300      124.48000
C         73.87300      127.43800      126.64800
N         71.91900      124.83300      126.26900
C         71.77900      123.40900      125.99400
C         70.52900      122.85500      126.67000
O         69.93400      123.51200      127.52600
C         73.01700      122.65200      126.45100
Mn       175.51800      159.42100      153.76800
Mn       178.15400      160.17600      154.00800
Zn        87.35000      153.08000      180.31000
Zn        76.21400      152.94300      188.35500
C        136.36400      152.90500      166.06500
C        137.35500      153.64600      165.17000
C        138.24000      152.77000      164.28500
C        137.36500      151.88800      163.38800
C        136.08700      151.28900      163.99700
C        135.51100      151.89300      165.29100
O        136.97100      152.36000      167.20200
P        136.64300      153.18100      168.58800
O        137.05600      152.38700      169.79300
O        135.17000      153.46500      168.65600
O        137.36600      154.49500      168.59300
O        138.14400      154.47800      165.94900
P        137.77200      156.04200      165.70200
O        136.28200      156.15400      165.57400
O        138.26800      156.85500      166.85900
O        138.40300      156.49000      164.41800
O        139.18900      152.06200      165.03100
P        140.76100      152.53600      164.85900
O        140.88200      153.64500      163.85300
O        141.57600      151.37400      164.37500
O        141.33400      153.00600      166.16600
O        138.13200      150.88000      162.80900
P        138.77800      151.32700      161.37700
O        137.82600      152.26400      160.69400
O        139.00400      150.13100      160.49900
O        140.06900      152.04300      161.65100
O        136.22000      149.91100      164.13400
P        135.31600      149.08400      163.05100
O        135.49700      147.60700      163.25600
O        135.74300      149.47600      161.66500
O        133.87400      149.45800      163.24000
O        135.05600      150.88100      166.13500
P        133.43400      150.94800      166.35200
O        132.81200      151.37100      165.05300
O        133.13800      151.98800      167.39300
O        132.87600      149.61900      166.78100
