3859
TetToxHcGT1b
N         15.34100      -30.15000       45.61900
C         14.49500      -29.58600       46.71700
C         14.90800      -30.07200       48.12900
O         14.39200      -29.56300       49.12000
C         12.99500      -29.82500       46.43300
C         12.34000      -28.78500       45.47300
C         12.66900      -29.05800       43.99000
C         12.38800      -27.84500       43.09500
N         13.12300      -27.88700       41.78700
N         15.74600      -31.11700       48.19800
C         16.45300      -31.57400       49.42100
C         16.80000      -30.52000       50.50700
O         16.60400      -30.78700       51.69900
C         17.73200      -32.35300       49.03400
C         17.43600      -33.77600       48.50500
O         16.27800      -34.18100       48.38000
N         18.49300      -34.53200       48.20300
N         17.32500      -29.35200       50.11500
C         17.64800      -28.28100       51.08100
C         16.67200      -27.10300       51.06300
O         16.82800      -26.14600       51.82700
C         19.06800      -27.74900       50.87900
C         20.14600      -28.42700       51.72900
C         21.43700      -27.65000       51.62900
C         19.74300      -28.57500       53.19900
N         15.67400      -27.16800       50.18400
C         14.63400      -26.14100       50.09900
C         13.82500      -26.10800       51.40500
O         13.96800      -26.99500       52.26400
C         13.73000      -26.39000       48.88200
C         14.45800      -26.16600       47.56200
O         15.67300      -25.89200       47.60700
O         13.90700      -26.23500       46.44000
N         12.97000      -25.10400       51.56800
C         12.24900      -24.98800       52.83000
C         10.98200      -25.81400       52.92500
O         10.99000      -26.88700       53.54200
C         11.96700      -23.52800       53.21000
S         10.85200      -22.53100       52.20600
N          9.90300      -25.34200       52.31100
C          8.60400      -25.97700       52.53100
C          8.51200      -27.36200       51.91200
O          9.26300      -27.69900       50.99900
C          7.45200      -25.05200       52.11300
C          6.77300      -24.35700       53.31100
C          5.48800      -24.55600       53.75300
C          7.34700      -23.37800       54.20200
N          5.23200      -23.75900       54.84400
C          6.35400      -23.02800       55.14200
C          8.60000      -22.75900       54.30200
C          6.57800      -22.08700       56.15900
C          8.81900      -21.82700       55.32100
C          7.81500      -21.50200       56.22600
N          7.59000      -28.15600       52.44500
C          7.44200      -29.57000       52.08900
C          6.00200      -29.96400       51.79000
O          5.53000      -30.98200       52.29500
C          7.87000      -30.47100       53.27500
C          9.39000      -30.57900       53.38500
C          7.25500      -29.95400       54.58400
N          5.29500      -29.19000       50.97200
C          3.88500      -29.51000       50.74400
C          3.48700      -29.93500       49.32000
O          3.37200      -31.13500       49.07200
C          2.98500      -28.41400       51.32600
C          2.59300      -28.71200       52.77600
O          3.35400      -29.45300       53.44300
O          1.54900      -28.28700       53.32600
N          3.26500      -28.99300       48.39700
C          2.84500      -29.38600       47.04200
C          3.54600      -28.68200       45.86900
O          3.21500      -27.55100       45.49300
C          1.31500      -29.35100       46.90100
C          0.68600      -30.74200       47.06700
O          0.31100      -31.14900       48.17200
N          0.59200      -31.48100       45.96700
N          4.48800      -29.42500       45.28700
C          5.35100      -28.98700       44.18700
C          4.69200      -28.75100       42.82100
O          5.33700      -28.96700       41.78700
C          6.49800      -30.00400       43.99600
C          6.07900      -31.47300       43.96500
C          5.38300      -31.89200       42.68300
O          4.37900      -32.64100       42.77800
O          5.84800      -31.49700       41.58800
N          3.44100      -28.30500       42.77900
C          2.84500      -28.02300       41.47400
C          2.34800      -26.58200       41.24200
O          2.51400      -26.06200       40.13800
C          1.75300      -29.04500       41.13300
C          2.23400      -30.12200       40.16100
C          2.32900      -31.50000       40.78600
O          2.34400      -31.58300       42.02900
O          2.38200      -32.49900       40.03300
N          1.78100      -25.92100       42.25200
C          1.17300      -24.59900       42.01900
C          2.05100      -23.36800       42.33200
O          2.02700      -22.82500       43.43600
C         -0.17400      -24.49500       42.73800
C         -1.18000      -23.65700       41.96000
O         -0.76200      -22.69000       41.28600
O         -2.40400      -23.89100       41.94500
N          2.76700      -22.91800       41.30500
C          3.71200      -21.81000       41.38400
C          3.21400      -20.59300       42.07400
O          3.98500      -19.84800       42.62900
C          4.05300      -21.30400       39.98500
C          4.41600      -22.45100       39.04200
C          5.15300      -20.25100       40.08100
C          5.62800      -23.19600       39.45100
N          1.93200      -20.33900       41.99000
C          1.42800      -19.11500       42.55400
C          1.56700      -19.33500       44.04300
O          2.26100      -18.61400       44.74200
C         -0.02600      -18.90200       42.11700
C         -0.72800      -17.80100       42.90000
O         -0.45900      -17.68300       44.11600
O         -1.57400      -17.02100       42.39000
N          0.93600      -20.40300       44.49500
C          0.92200      -20.77400       45.89700
C          2.32100      -21.05900       46.42500
O          2.58400      -20.83300       47.59500
C         -0.02800      -21.97500       46.12600
C          0.47700      -22.92200       47.22000
C         -1.44300      -21.46400       46.43700
N          3.22600      -21.53100       45.57200
C          4.59400      -21.79100       46.02100
C          5.30800      -20.47900       46.36900
O          6.02100      -20.40400       47.36600
C          5.38200      -22.59500       44.97600
C          4.73200      -23.95900       44.77300
C          6.82700      -22.79400       45.43700
C          5.16100      -24.65800       43.51100
N          5.10200      -19.43500       45.57300
C          5.77000      -18.16400       45.84800
C          5.33900      -17.62600       47.20000
O          6.15800      -17.16400       47.97600
C          5.47700      -17.12800       44.76400
C          5.86800      -17.54800       43.35300
C          5.25600      -16.59300       42.36100
C          7.37700      -17.62700       43.15700
N          4.05100      -17.68700       47.48400
C          3.55800      -17.21000       48.75300
C          4.17500      -18.04100       49.88400
O          5.02600      -17.56000       50.62700
C          2.02700      -17.28900       48.79800
C          1.36100      -16.07000       49.46900
C         -0.18800      -16.09200       49.40000
C         -0.83600      -16.68500       50.65700
N         -2.34000      -16.50600       50.66000
N          3.76300      -19.30200       49.98600
C          4.18000      -20.19000       51.08100
C          5.67900      -20.15900       51.42200
O          6.06200      -20.29700       52.58200
C          3.71200      -21.63800       50.81400
C          2.22800      -21.84000       51.14300
C          1.85900      -23.25400       51.60100
C          0.94800      -23.19400       52.84600
N         -0.34200      -23.97400       52.75800
N          6.50900      -19.94200       50.41600
C          7.95600      -19.99400       50.57300
C          8.59000      -18.63200       50.80100
O          9.80900      -18.50200       50.87600
C          8.53900      -20.57300       49.29900
O          9.75500      -21.20500       49.58800
N          7.77000      -17.60000       50.86900
C          8.31500      -16.28800       51.06500
C          8.53500      -16.10400       52.54100
O          7.65600      -16.44500       53.33800
C          7.35100      -15.24200       50.56800
O          7.32500      -15.26600       49.14600
C          7.85600      -13.86800       50.86900
N          9.68800      -15.53200       52.89900
C         10.02900      -15.31900       54.31000
C         10.25800      -13.85700       54.70000
O         10.31900      -13.51200       55.89400
C         11.22500      -16.18200       54.73600
C         12.44500      -15.91700       53.86600
C         10.85600      -17.66800       54.68300
C         13.68300      -16.38600       54.48700
N         10.36200      -12.98600       53.70200
C         10.49500      -11.57100       53.96800
C          9.90900      -10.86900       52.75900
O         10.17300      -11.27700       51.63500
C         11.97100      -11.19600       54.20400
C         12.23400       -9.68400       54.23200
C         11.54900       -9.04400       55.42300
C         13.71900       -9.31400       54.21400
N          9.10900       -9.82700       52.97600
C          8.48500       -9.12800       51.84900
C          8.21000       -7.61800       52.03900
O          7.18700       -7.21700       52.57000
C          7.19500       -9.85500       51.46500
C          6.81600       -9.61200       50.06800
O          7.30800       -8.66400       49.45500
N          5.95000      -10.46800       49.51600
N          9.10100       -6.78100       51.53300
C          8.96200       -5.33300       51.66000
C          7.90900       -4.71800       50.76200
O          8.11200       -4.60300       49.55200
C         10.30700       -4.67500       51.37000
C         11.28100       -5.03700       52.48600
C         12.52200       -4.18500       52.53700
C         10.54800       -4.92200       53.77800
N          6.78900       -4.31100       51.35300
C          5.73000       -3.61000       50.62300
C          5.67300       -2.19000       51.21100
O          6.24100       -1.91900       52.25800
C          4.37400       -4.33700       50.75900
C          3.26500       -3.72200       49.88700
O          3.58500       -3.05300       48.88400
O          2.03800       -3.86700       50.12500
N          5.01500       -1.27600       50.52600
C          4.93900        0.09100       50.99200
C          3.46300        0.46500       50.89400
O          2.82000        0.12700       49.91100
C          5.83200        1.00400       50.12300
C          7.30100        0.57200       50.23200
C          5.70000        2.44200       50.55400
C          8.26600        1.48600       49.51000
N          2.93900        1.13500       51.92500
C          1.52000        1.48200       52.03300
C          1.36400        2.75300       52.89900
O          1.85200        2.82500       54.01700
C          0.73400        0.31000       52.65100
C          0.57100       -0.88900       51.68600
O         -0.17700       -0.81400       50.70000
N          1.26400       -2.00500       51.98700
N          0.67400        3.75700       52.38200
C          0.59200        5.04600       53.06200
C          1.97100        5.52700       53.52700
O          2.14400        6.01300       54.63300
C         -0.39700        5.00100       54.22300
C         -1.65000        4.22800       53.87700
O         -2.67000        4.80700       53.49100
N         -1.57600        2.90200       53.99000
N          2.95500        5.35200       52.66400
C          4.26800        5.90300       52.88500
C          5.10800        5.22200       53.94900
O          6.12900        5.77100       54.36900
C          4.10800        7.37100       53.22100
C          3.73400        8.17900       52.02800
O          3.16400        9.26000       52.21700
O          3.96400        7.81100       50.85600
N          4.67500        4.04900       54.41400
C          5.47500        3.26800       55.34500
C          5.85000        1.93000       54.73600
O          5.01500        1.23800       54.17700
C          4.73300        3.00600       56.64200
C          4.26800        4.31900       57.28200
C          5.63100        2.23300       57.60200
C          5.39500        5.34200       57.50600
N          7.11600        1.57400       54.90100
C          7.67000        0.33300       54.43200
C          7.44800       -0.70600       55.52500
O          7.80400       -0.46800       56.66900
C          9.17800        0.54900       54.21800
C          9.42200        1.82200       53.41400
C          9.81400       -0.64200       53.51900
C         10.87900        2.21800       53.31700
N          6.84700       -1.85000       55.21300
C          6.70900       -2.89500       56.23200
C          6.93600       -4.28500       55.64500
O          6.93500       -4.44400       54.43600
C          5.34600       -2.78800       56.93900
O          4.26300       -2.85800       56.02800
N          7.20300       -5.27100       56.50000
C          7.34300       -6.66100       56.04900
C          5.94100       -7.25100       55.94900
O          5.16300       -7.16000       56.90800
C          8.16000       -7.48700       57.04300
C          8.06400       -8.97900       56.78400
O          7.46200       -9.35700       55.76800
O          8.56500       -9.84500       57.54200
N          5.61400       -7.85600       54.81300
C          4.26300       -8.37000       54.63500
C          4.15900       -9.86100       54.44600
O          3.08700      -10.36000       54.15600
C          3.50600       -7.62300       53.52600
C          4.23200       -7.73800       52.18200
C          3.30200       -6.14900       53.96200
C          3.28400       -7.65500       50.98200
N          5.27100      -10.56600       54.57600
C          5.19300      -11.99200       54.78800
C          4.46900      -12.02400       56.10400
O          4.30800      -10.98800       56.75500
C          6.56400      -12.58200       55.02500
O          7.15200      -11.97600       56.16400
N          4.05700      -13.19400       56.54700
C          3.38400      -13.27400       57.83000
C          4.29600      -13.15400       59.04100
O          3.83000      -13.09800       60.18000
N          5.60200      -13.08800       58.80300
C          6.58300      -13.10000       59.88900
C          6.75200      -11.75300       60.57700
O          7.30900      -11.66500       61.65800
C          7.90100      -13.66700       59.36800
C          7.72900      -14.99900       58.70400
C          8.32400      -15.28200       57.50200
C          6.91300      -15.95200       59.27000
C          8.12500      -16.50200       56.89200
C          6.71700      -17.16000       58.66500
C          7.32200      -17.43000       57.46800
N          6.26600      -10.69100       59.97500
C          6.33200       -9.43100       60.66400
C          7.75900       -9.05900       61.09500
O          7.94700       -8.61200       62.21600
C          5.47300       -9.50000       61.94500
C          4.01400       -9.96200       61.69900
O          3.31300      -10.33700       62.65300
N          3.55400       -9.92300       60.44800
N          8.76700       -9.26600       60.24900
C         10.12100       -8.81300       60.58100
C          9.95100       -7.32500       60.72800
O          8.99700       -6.78900       60.19100
C         11.11400       -9.07500       59.44900
O         11.63900      -10.38100       59.48000
N         10.83900       -6.63300       61.43400
C         10.67400       -5.16800       61.53200
C         11.62000       -4.37100       60.64100
O         12.76200       -4.73500       60.39900
C         10.73000       -4.65200       62.96900
O         11.33000       -5.59100       63.83500
N         11.09600       -3.28500       60.10400
C         11.88800       -2.43800       59.23800
C         11.88900       -1.04600       59.85000
O         10.86000       -0.55400       60.30200
C         11.38000       -2.47000       57.78400
C         12.20000       -3.47600       56.96200
C          9.96300       -2.85300       57.75500
N         13.07800       -0.46400       59.93200
C         13.26200        0.87100       60.49300
C         13.72400        1.73700       59.37200
O         14.76900        1.48600       58.79900
C         14.33200        0.87800       61.58600
C         14.00000       -0.13200       62.65600
C         14.46400        2.28000       62.21500
C         12.68800        0.16100       63.28700
N         12.92200        2.73600       59.03800
C         13.23100        3.61800       57.92900
C         13.86100        4.84800       58.49700
O         13.19700        5.61600       59.20100
C         11.97800        4.00500       57.18700
O         11.23300        2.82700       56.87600
C         12.32000        4.60900       55.84200
N         15.13400        5.05000       58.18900
C         15.80700        6.24900       58.66700
C         15.22200        7.53400       58.04800
O         14.30200        7.47200       57.26300
C         17.30900        6.09700       58.49600
C         17.81800        5.31100       59.66700
C         17.36400        4.02000       59.89500
C         18.67400        5.88300       60.60800
C         17.78700        3.30600       60.97500
C         19.11400        5.17000       61.70000
C         18.66300        3.88400       61.87400
O         19.06000        3.17200       62.96400
N         15.70200        8.70000       58.45700
C         15.12500        9.98200       58.01100
C         15.28200       10.35800       56.51300
O         14.46000       11.07100       55.94500
C         15.85600       11.03000       58.87200
C         16.77300       10.32400       59.76900
C         16.79100        8.87000       59.43700
N         16.32600        9.88400       55.86700
C         16.56400       10.32800       54.51500
C         16.29700        9.24500       53.49200
O         16.80800        9.29700       52.37100
C         17.99700       10.83900       54.40800
C         18.14600       11.97800       53.42200
O         17.13000       12.51000       52.91300
O         19.27000       12.41100       53.09200
N         15.49400        8.25800       53.87900
C         15.09600        7.22600       52.93400
C         13.99700        7.91000       52.19600
O         13.17900        8.58800       52.80400
C         14.61300        5.95600       53.63800
N         13.99700        7.76000       50.88300
C         13.10100        8.51200       50.01600
C         12.20400        7.57700       49.27500
O         12.59400        6.45700       48.95900
C         13.93400        9.33500       49.03700
C         14.22000       10.74400       49.57100
C         15.25900       11.51800       48.79300
O         15.25300       11.54100       47.57000
N         16.12900       12.20200       49.51300
N         10.97300        8.01200       49.05100
C         10.01000        7.23800       48.30400
C          9.82800        7.87400       46.93600
O          9.72200        9.08700       46.81600
C          8.69600        7.15800       49.07500
C          8.84600        6.43700       50.43000
C          7.60300        5.62500       50.81300
C         10.03000        5.50700       50.39300
N          9.83600        7.02700       45.90900
C          9.61200        7.43900       44.53500
C          8.64900        6.45900       43.82800
O          8.40200        5.34700       44.31200
C         10.94400        7.48400       43.74700
C         11.88400        8.44600       44.40100
C         11.56000        6.13200       43.64700
N          8.12300        6.86400       42.67700
C          7.29600        5.95600       41.89400
C          8.02000        4.64100       41.74200
O          9.23800        4.61900       41.56300
C          7.15400        6.67700       40.54900
C          7.33100        8.10700       40.86700
C          8.27400        8.17400       42.02800
N          7.28500        3.54900       41.87700
C          7.84600        2.22200       41.68400
C          7.12600        1.51300       40.55500
O          6.26800        2.07900       39.89500
N          7.46100        0.25800       40.34000
C          6.87600       -0.47200       39.25200
C          5.43500       -0.81300       39.63000
O          4.66700       -1.29600       38.79500
C          7.70800       -1.70400       38.96200
C          7.40600       -2.25500       37.56200
C          7.49400       -2.74100       40.04600
C          8.52100       -1.92800       36.49800
N          5.03600       -0.51900       40.86100
C          3.66300       -0.83900       41.26300
C          3.29400       -0.28800       42.63600
O          3.05500       -1.04600       43.58300
C          3.49700       -2.34300       41.29500
C          2.11200       -2.75300       41.66000
O          1.24000       -2.90100       40.79500
N          1.88600       -2.95100       42.95800
N          3.19900        1.02900       42.73100
C          3.09800        1.69700       44.01000
C          4.41400        2.44700       44.21300
O          5.15700        2.71800       43.27400
N          4.73900        2.78200       45.44900
C          5.94500        3.53700       45.67700
C          7.12100        2.61200       45.98600
O          6.94900        1.48000       46.40400
C          5.70500        4.53900       46.79200
C          4.52200        5.56300       46.54600
C          4.31600        6.50800       47.78000
C          3.25400        7.62800       47.57500
N          1.83900        7.29800       48.02800
N          8.32800        3.10000       45.71900
C          9.55800        2.34400       45.95000
C         10.48500        3.16100       46.83500
O         10.21300        4.33400       47.12000
C         10.25700        2.01800       44.65100
N         11.56500        2.51100       47.26200
C         12.60300        3.10400       48.06700
C         13.70600        3.70800       47.20100
O         14.22000        3.08000       46.27500
C         13.19900        2.02100       48.91200
C         12.12600        1.42000       49.81400
C         14.33100        2.55200       49.75000
C         12.53600        0.11100       50.41300
N         14.05700        4.94400       47.50300
C         15.09200        5.64500       46.78800
C         16.16300        5.96200       47.81400
O         15.86100        6.51800       48.86200
C         14.51400        6.93100       46.18600
C         15.48200        7.69500       45.34100
N         15.87000        8.98600       45.63400
C         16.13500        7.35300       44.20300
C         16.72900        9.40700       44.72000
N         16.91400        8.42800       43.84500
N         17.40800        5.60000       47.52900
C         18.49500        5.80500       48.47000
C         19.49200        6.77300       47.89600
O         19.86500        6.63100       46.74100
C         19.24300        4.49000       48.72000
C         18.52700        3.26400       49.29100
C         19.45200        2.02900       49.31300
C         18.04100        3.55700       50.68400
N         19.94200        7.74100       48.69100
C         21.01700        8.64600       48.26900
C         22.25900        8.53500       49.16400
O         22.22800        7.90200       50.21600
C         20.59900       10.11400       48.19900
C         21.55100       10.88700       47.17600
C         19.12700       10.25500       47.74300
N         23.34500        9.18700       48.74300
C         24.61700        9.04400       49.40900
C         24.91600        9.87100       50.65900
O         25.89100       10.62000       50.71000
C         25.78600        9.15600       48.42800
C         27.00800        8.41500       48.94000
O         26.93700        7.79000       50.00000
N         28.11000        8.45800       48.20200
N         24.08900        9.71300       51.67800
C         24.47600       10.18100       52.99500
C         24.10500        9.12200       54.06900
O         23.08400        8.43900       53.95900
C         23.96100       11.59400       53.28500
C         22.46900       11.69100       53.25900
O         21.78900       10.98500       53.99300
N         21.94400       12.60600       52.44400
N         24.94900        8.94100       55.08500
C         24.67300        7.91700       56.09100
C         23.31600        8.05500       56.83400
O         23.12400        7.47000       57.88400
C         25.86200        7.78200       57.09100
C         27.06800        7.03300       56.49400
C         28.18500        6.74600       57.48400
O         28.65300        5.57900       57.51800
O         28.62900        7.67200       58.21800
N         22.34300        8.78600       56.31100
C         21.04500        8.81600       57.00100
C         19.90800        8.40800       56.05700
O         18.72300        8.52900       56.38200
C         20.78000       10.16700       57.64700
O         20.70200       11.17600       56.69200
N         20.30000        7.87400       54.91000
C         19.38000        7.41300       53.94000
C         19.50300        5.90600       53.93500
O         20.34000        5.35900       53.21900
C         19.72200        7.98300       52.55500
O         18.61000        7.85300       51.71100
N         18.65800        5.24000       54.71600
C         18.69900        3.80200       54.78500
C         17.44000        3.19300       55.37900
O         16.66600        3.87100       56.06900
C         19.91800        3.36100       55.62500
C         20.12100        4.13300       56.92600
C         20.98900        3.39100       57.95900
O         22.26000        3.47900       57.95400
O         20.39200        2.73800       58.83800
N         17.25100        1.90600       55.07600
C         16.18000        1.08800       55.64000
C         16.86500       -0.10600       56.30200
O         17.80500       -0.65700       55.77900
C         15.20200        0.52400       54.58600
C         13.91800        0.08700       55.26000
C         14.90000        1.52900       53.50600
N         16.41100       -0.50400       57.47100
C         16.98600       -1.66700       58.10600
C         15.88200       -2.68900       58.30700
O         14.76400       -2.32100       58.60900
C         17.69400       -1.27900       59.45800
C         19.18100       -1.62000       59.43600
C         17.19900       -2.11900       60.60500
C         20.02400       -0.68400       58.64100
N         16.19500       -3.96300       58.09000
C         15.27200       -5.04200       58.41300
C         15.80000       -5.82800       59.59400
O         16.88600       -6.38400       59.54300
C         15.11600       -6.08200       57.30500
C         13.75500       -6.70200       57.40900
C         15.30200       -5.47200       55.94900
N         15.02600       -5.88100       60.65900
C         15.38700       -6.68200       61.79000
C         14.73800       -8.04200       61.64200
O         13.58700       -8.22900       62.01500
C         14.90200       -6.04100       63.08000
C         15.69800       -6.46100       64.27400
N         17.07100       -6.31800       64.33400
C         15.33200       -7.06500       65.42700
C         17.51300       -6.80600       65.47800
N         16.47700       -7.25800       66.16300
N         15.47600       -8.99500       61.08500
C         14.94600      -10.32300       60.82100
C         14.26200      -10.81100       62.07000
O         14.76800      -10.65100       63.18200
C         16.06000      -11.29100       60.45100
C         17.08700      -10.70300       59.51300
C         18.00200      -11.76400       58.97400
C         19.02300      -12.14600       60.00700
N         20.08000      -13.00500       59.44100
N         13.09900      -11.40500       61.88900
C         12.35500      -11.94200       63.01300
C         12.96600      -13.25300       63.54400
O         13.76800      -13.92500       62.88400
C         10.87300      -12.15300       62.61900
N         12.56000      -13.58900       64.75700
C         12.97800      -14.79900       65.42700
C         13.09600      -15.92700       64.45100
O         14.20100      -16.33600       64.11400
C         11.94100      -15.17000       66.51400
C         12.22800      -16.46100       67.31700
S         10.82400      -16.99200       68.38600
C         11.59900      -18.39000       69.36300
N         11.94900      -16.40100       63.97600
C         11.89000      -17.61000       63.16600
C         12.29300      -17.54300       61.70200
O         11.80700      -18.35700       60.91100
C         10.50500      -18.23700       63.28100
C         10.25100      -18.81300       64.66200
O         11.23400      -19.23200       65.33400
O          9.10500      -18.88500       65.15600
N         13.15600      -16.58700       61.34400
C         13.78500      -16.54600       60.02000
C         15.24400      -16.10200       60.17700
O         16.08500      -16.29900       59.28700
C         13.04500      -15.63300       59.01500
C         12.85700      -14.22300       59.58100
C         11.72600      -16.24700       58.61000
C         13.14000      -13.15000       58.55500
N         15.52800      -15.50200       61.32100
C         16.86600      -15.07000       61.69400
C         18.00500      -15.86800       61.03300
O         18.84200      -15.30200       60.33300
C         16.96500      -15.15100       63.22900
C         18.35700      -15.01200       63.83700
C         18.78500      -13.55900       64.00700
O         17.93400      -12.73700       64.43900
O         19.96700      -13.23500       63.71200
N         18.00900      -17.18300       61.23000
C         19.10200      -18.03400       60.77500
C         18.90300      -18.76700       59.43300
O         19.86700      -19.29400       58.87400
C         19.38200      -19.06500       61.87500
C         19.77100      -18.44600       63.21500
C         20.87900      -17.60800       63.30900
C         19.02700      -18.68600       64.37400
C         21.24700      -17.03000       64.51200
C         19.38800      -18.10400       65.59400
C         20.50300      -17.27600       65.64800
O         20.88500      -16.67700       66.82400
N         17.68400      -18.79300       58.89900
C         17.38800      -19.60100       57.70500
C         18.55200      -19.92500       56.78500
O         18.78600      -21.07300       56.44800
C         16.31100      -18.94400       56.84000
C         15.90100      -19.82900       55.62700
O         14.95400      -20.62100       55.70900
N         16.62600      -19.70300       54.51900
N         19.24400      -18.88800       56.35200
C         20.30000      -19.00500       55.36100
C         21.64000      -19.44600       55.89400
O         22.64900      -19.26300       55.21500
C         20.51300      -17.63700       54.73100
C         20.83900      -16.56600       55.78400
O         22.02000      -16.18300       55.88000
O         20.00300      -16.07700       56.58500
N         21.68800      -19.99100       57.09800
C         22.97000      -20.41300       57.59900
C         23.36500      -21.60200       56.77900
O         24.52200      -21.70300       56.39600
C         22.95800      -20.74600       59.09100
C         24.33000      -21.13200       59.62200
S         24.62700      -20.78300       61.36100
C         22.92400      -20.52600       61.97200
N         22.39800      -22.47100       56.47800
C         22.66000      -23.67600       55.68300
C         21.70900      -23.89700       54.52300
O         22.08100      -24.52200       53.56400
C         22.56400      -24.94100       56.54700
C         23.45100      -24.93400       57.74600
C         22.90800      -24.93400       59.02000
C         24.83200      -24.94900       57.60900
C         23.72100      -24.93300       60.13700
C         25.66000      -24.95000       58.74200
C         25.09300      -24.94200       60.00100
N         20.46500      -23.45800       54.62500
C         19.49800      -23.70700       53.56100
C         19.63800      -22.82200       52.34300
O         20.49400      -21.95700       52.27700
C         18.07400      -23.54900       54.07700
C         17.89300      -24.13600       55.42900
O         17.53000      -23.43000       56.36800
N         18.15300      -25.44300       55.55500
N         18.75100      -23.07900       51.39300
C         18.67200      -22.38700       50.14400
C         17.85500      -21.15500       50.29600
O         16.79100      -21.14800       50.93200
C         17.94100      -23.24500       49.11500
C         18.70800      -24.44400       48.70500
O         19.89400      -24.57400       48.98200
N         18.03600      -25.33700       48.00600
N         18.32100      -20.10300       49.67600
C         17.53900      -18.89900       49.69400
C         17.59900      -18.24000       48.34500
O         18.50900      -18.45700       47.53900
C         17.98000      -17.94600       50.80900
C         19.38800      -17.47400       50.67600
C         20.42500      -18.36300       50.74700
C         19.65700      -16.14100       50.44300
C         21.70100      -17.94700       50.60100
C         20.93600      -15.71000       50.29300
C         21.95600      -16.60500       50.36200
N         16.55900      -17.47900       48.10900
C         16.39300      -16.71500       46.90500
C         16.09700      -15.27300       47.30300
O         15.26000      -15.02100       48.16600
C         15.23900      -17.30700       46.14800
O         15.67400      -18.48400       45.47200
C         14.78400      -16.41100       45.07400
N         16.83000      -14.34800       46.70900
C         16.60700      -12.91300       46.88000
C         16.16700      -12.29000       45.55700
O         16.85000      -12.38300       44.53300
C         17.88800      -12.19500       47.25700
C         17.69500      -10.74700       47.15000
C         18.32400      -12.53100       48.68600
N         15.04300      -11.60700       45.58700
C         14.50300      -11.02800       44.38300
C         14.17700       -9.59700       44.66500
O         13.65500       -9.28700       45.74300
C         13.24300      -11.76200       43.97100
O         12.13100      -11.20000       44.62600
N         14.53600       -8.70700       43.74000
C         14.15100       -7.30200       43.85700
C         14.16900       -6.54400       42.53600
O         14.87300       -6.92800       41.59700
C         15.03200       -6.56000       44.86600
C         16.49000       -6.52800       44.49900
C         17.34200       -7.55600       44.89800
C         17.00900       -5.48800       43.79500
C         18.67200       -7.53300       44.56800
C         18.33800       -5.47200       43.47000
C         19.16500       -6.48000       43.86300
N         13.39100       -5.46300       42.48600
C         13.40800       -4.55700       41.34600
C         14.53500       -3.56500       41.67000
O         14.65500       -3.15400       42.83000
C         12.05800       -3.82500       41.16600
C         10.98000       -4.67400       40.57900
C         10.02500       -5.38900       41.25800
C         10.75300       -4.92700       39.18300
N          9.22100       -6.06300       40.36900
C          9.65000       -5.80900       39.09000
C         11.37300       -4.50300       37.99500
C          9.14900       -6.25000       37.87000
C         10.87000       -4.97200       36.76600
C          9.77500       -5.82100       36.72100
N         15.36500       -3.24000       40.67100
C         16.46300       -2.28200       40.82500
C         16.32200       -1.19900       39.75000
O         15.66000       -1.42200       38.78500
C         17.80500       -2.99600       40.65700
C         19.05200       -2.12900       40.79100
C         19.02100       -1.27200       42.03900
C         20.31200       -2.96900       40.80900
N         16.93700       -0.03700       39.94200
C         16.94300        1.07300       38.97400
C         18.15500        1.91300       39.30900
O         18.16200        2.63800       40.29200
C         15.67900        1.93600       39.05200
C         15.66300        3.11200       38.02600
C         14.33900        3.89600       37.84800
N         14.58100        4.91400       36.80100
C         14.10900        6.16600       36.78600
N         13.27400        6.60500       37.71400
N         14.47600        6.98200       35.81900
N         19.19700        1.77300       38.51300
C         20.44000        2.50500       38.67200
C         20.56600        3.43100       37.48600
O         20.23200        3.04900       36.39300
C         21.58200        1.52200       38.65700
C         22.89900        2.17700       39.00500
C         21.30400        0.43500       39.65400
N         21.01700        4.65800       37.68100
C         21.13000        5.62100       36.57400
C         22.28900        5.30000       35.63900
O         23.26500        4.73700       36.09300
C         21.39100        6.94100       37.27900
C         21.50100        6.64900       38.71900
C         21.44600        5.22900       38.95700
N         22.17800        5.60400       34.36300
C         23.29000        5.35100       33.46100
C         24.51100        6.04700       34.04000
O         24.50400        7.25500       34.24100
C         23.01700        5.89700       32.03600
C         24.11100        5.45900       31.04600
C         23.97400        6.02900       29.64800
C         23.87700        7.54500       29.62300
N         24.69700        8.27400       30.67200
N         25.54600        5.29300       34.37700
C         26.74200        5.94400       34.85700
C         27.31100        6.78300       33.73700
O         27.55500        6.28400       32.63500
C         27.87600        5.01000       35.21100
C         28.96400        5.84300       35.88300
C         27.42600        3.85900       36.11300
N         27.56000        8.04200       34.03800
C         28.11700        8.95200       33.07800
C         29.53200        8.53200       32.76700
O         30.22600        8.00600       33.59900
C         28.10400       10.38300       33.62400
O         29.13500       10.58000       34.55800
N         29.98900        8.81700       31.56800
C         31.30500        8.38200       31.20000
C         32.36600        9.00600       32.10200
O         33.44600        8.45100       32.28500
C         31.55600        8.70100       29.78700
N         32.04900       10.14600       32.69800
C         32.99200       10.82000       33.56500
C         33.08200        9.98600       34.80900
O         34.16800        9.66300       35.29000
C         32.48800       12.20000       33.93100
O         33.46800       13.15500       33.64100
N         31.91600        9.64200       35.33900
C         31.85800        8.84300       36.52700
C         32.51700        7.46400       36.31800
O         33.10100        6.92700       37.22500
C         30.40900        8.74100       36.98600
C         29.87600       10.00700       37.59600
N         30.68100       10.93700       38.21200
C         28.61900       10.50500       37.66800
C         29.94600       11.94100       38.65800
N         28.69200       11.71200       38.32700
N         32.42300        6.89200       35.12900
C         33.07300        5.61900       34.81200
C         34.56600        5.74100       34.87200
O         35.29100        4.74600       34.99700
C         32.75600        5.17900       33.38300
C         31.38500        4.59400       33.11800
C         31.31300        4.07300       31.66900
C         31.11700        3.49100       34.16700
N         35.04100        6.96000       34.75400
C         36.45500        7.19100       34.75200
C         36.94300        7.35500       36.18300
O         38.02300        6.85800       36.56100
C         36.72600        8.45300       33.94800
C         37.99700        8.41900       33.13600
C         37.75800        8.86800       31.71200
O         37.34600       10.04300       31.50600
O         37.95000        8.02600       30.80200
N         36.14200        8.01300       37.00800
C         36.64600        8.36400       38.32200
C         36.07600        7.60600       39.49600
O         36.52800        7.79100       40.62400
C         36.54500        9.87300       38.54800
C         35.19100       10.45100       38.90700
C         35.18300       11.96700       38.62500
O         34.23400       12.52400       38.04800
N         36.26300       12.61700       39.00300
N         35.13700        6.70900       39.23600
C         34.53800        5.93500       40.29800
C         34.33400        4.53400       39.78800
O         33.54500        3.75700       40.34400
C         33.17600        6.49900       40.65300
C         33.17600        7.88500       41.25300
C         33.87500        8.15700       42.41000
C         32.44400        8.91600       40.66900
C         33.87700        9.42900       42.96600
C         32.42800       10.18600       41.22400
C         33.15300       10.44200       42.36800
O         33.14600       11.71000       42.92700
N         35.05400        4.19400       38.72800
C         34.81500        2.93300       38.06600
C         35.44100        1.74700       38.73000
O         35.19900        0.61600       38.31500
N         36.26200        2.00600       39.73800
C         36.96700        0.95300       40.45200
C         36.50200        0.95200       41.87100
O         37.08000        0.27600       42.72200
C         38.44500        1.22600       40.46600
O         38.70300        2.34600       41.31400
C         38.91300        1.66800       39.09900
N         35.48900        1.76300       42.13300
C         34.89100        1.82800       43.44000
C         33.68100        0.93000       43.51400
O         32.66200        1.19800       42.85700
C         34.46200        3.24500       43.74900
C         33.65500        3.32700       45.00300
O         34.00700        2.72400       46.00900
N         32.55600        4.04400       44.96100
N         33.77300       -0.12200       44.32300
C         32.68100       -1.05500       44.49100
C         31.96300       -0.76200       45.79300
O         32.60900       -0.65100       46.83100
C         33.21400       -2.47800       44.54000
C         32.14200       -3.51000       44.89300
C         32.70800       -4.88700       45.13800
O         33.90400       -5.10000       44.85700
O         31.95400       -5.76300       45.62000
N         30.63300       -0.64700       45.74700
C         29.85500       -0.36200       46.94900
C         28.59800       -1.18000       46.98600
O         28.04800       -1.54900       45.95300
C         29.43200        1.10200       46.99500
C         28.63500        1.59600       45.78600
C         29.25200        1.89600       44.58200
C         27.26300        1.76600       45.86600
C         28.50600        2.35900       43.48400
C         26.53400        2.19200       44.80200
C         27.14800        2.49400       43.61200
O         26.36800        2.93400       42.56200
N         28.06800       -1.33700       48.18200
C         26.86200       -2.09300       48.41500
C         25.60900       -1.27300       48.39600
O         25.64000       -0.12100       48.71200
C         26.93100       -2.65600       49.82500
O         27.88000       -3.66500       49.88800
N         24.49500       -1.90000       48.10000
C         23.21400       -1.24300       48.25300
C         22.32300       -2.10100       49.15100
O         21.46100       -1.58300       49.87200
C         22.55200       -0.95000       46.87700
C         22.37100       -2.20500       46.06000
C         23.39700        0.04300       46.09600
C         21.69900       -1.90900       44.75300
N         22.50800       -3.41500       49.09700
C         21.82700       -4.29500       50.05400
C         22.80600       -5.31400       50.69400
O         23.63600       -5.91900       50.00300
C         20.64600       -4.99300       49.41000
C         20.01500       -4.09500       48.34100
C         19.65800       -5.35600       50.46600
C         18.55500       -4.41800       47.99200
N         22.74300       -5.49000       52.01400
C         23.68300       -6.39400       52.65000
C         23.25200       -6.95800       53.98300
O         22.66500       -6.27300       54.82100
C         25.04000       -5.69300       52.79300
O         26.05100       -6.66500       52.94600
N         23.56600       -8.22100       54.19300
C         23.18700       -8.88500       55.43900
C         24.43500       -9.03700       56.26500
O         24.46100       -9.68500       57.29600
C         22.67300      -10.28600       55.14200
O         23.80100      -11.15100       55.04400
N         25.47100       -8.37900       55.81500
C         26.79100       -8.70400       56.26100
C         27.57000       -7.60000       56.93700
O         28.10400       -6.72600       56.29200
C         27.48500       -9.20000       55.00300
C         28.85700       -8.74500       54.69800
S         28.80300       -9.45300       53.04900
C         30.34200       -9.22700       52.35700
N         27.60200       -7.65100       58.25700
C         28.42600       -6.78000       59.07200
C         29.65600       -6.24500       58.35100
O         30.42400       -7.00100       57.75200
C         28.88400       -7.58600       60.27200
C         28.89700       -6.82900       61.56200
C         28.97500       -7.79600       62.73000
C         27.65200       -7.89700       63.49200
N         27.92700       -8.27600       64.91800
N         29.88000       -4.94200       58.45800
C         30.93300       -4.30600       57.68500
C         31.96700       -3.60800       58.53700
O         31.71600       -3.20600       59.65900
C         30.35800       -3.23200       56.73000
C         29.00500       -3.50900       56.02000
C         29.18000       -4.03700       54.55900
C         28.44000       -3.22200       53.47500
N         27.07800       -2.67600       53.86400
N         33.14800       -3.43600       57.96200
C         34.15100       -2.60300       58.59400
C         35.41700       -2.24500       57.75500
O         36.29200       -3.06900       57.51800
C         34.53200       -3.21800       59.90900
C         35.90600       -2.85500       60.34500
N         36.28800       -1.55300       60.57400
C         37.00300       -3.61600       60.55400
C         37.56000       -1.53300       60.93000
N         38.01500       -2.77200       60.93500
N         35.47600       -1.00400       57.27600
C         36.66400       -0.49700       56.59600
C         37.28100       -1.49900       55.58300
O         38.42800       -1.93700       55.73400
C         37.68400       -0.12800       57.67000
O         37.11200        0.74700       58.64200
N         36.52600       -1.83400       54.53700
C         36.95500       -2.86600       53.58700
C         37.44500       -4.11600       54.31900
O         38.47400       -4.67700       53.97200
C         38.00300       -2.33100       52.58400
C         38.79600       -3.25600       51.63600
C         40.27000       -3.12900       51.97800
C         38.35300       -4.72600       51.60600
N         36.75400       -4.48900       55.39100
C         36.90600       -5.80700       56.00300
C         35.43400       -6.21400       56.16600
O         34.59500       -5.34700       56.44400
C         37.65200       -5.79300       57.34800
O         38.95700       -5.21600       57.25700
N         35.08900       -7.49000       55.97000
C         33.67800       -7.85800       55.99400
C         33.34400       -8.98700       56.90800
O         34.19000       -9.84700       57.17000
C         33.18600       -8.31700       54.61500
C         34.26500       -8.24300       53.55200
C         31.99700       -7.53100       54.21300
C         33.75200       -8.72700       52.21000
N         32.08400       -9.01300       57.34000
C         31.59200      -10.08900       58.17500
C         31.37100      -11.37900       57.40000
O         32.25800      -11.86700       56.72600
N         30.17900      -11.93700       57.52500
C         29.76000      -13.13600       56.81700
C         28.34900      -12.79700       56.38500
O         27.76100      -11.88000       56.92300
C         29.77200      -14.34100       57.76000
O         29.06300      -15.45300       57.23400
N         27.81100      -13.50400       55.40900
C         26.48900      -13.18900       54.88000
C         26.53400      -12.92000       53.38300
O         27.25700      -13.59200       52.64800
N         25.77200      -11.92800       52.93400
C         25.75800      -11.56300       51.52300
C         25.51200      -10.09700       51.29700
O         25.04300       -9.38300       52.16900
C         24.67000      -12.36200       50.78500
C         23.28500      -12.15000       51.36200
C         22.64700      -12.94200       52.23100
C         22.40600      -11.06700       51.09000
N         21.40600      -12.43900       52.51300
C         21.23600      -11.28600       51.80700
C         22.49500       -9.92400       50.30100
C         20.19600      -10.40400       51.80100
C         21.45700       -9.07900       50.26900
C         20.31400       -9.31600       50.99800
N         25.83300       -9.66300       50.09100
C         25.55700       -8.28900       49.64400
C         25.21800       -8.20700       48.18800
O         25.53700       -9.09900       47.42000
C         26.80200       -7.43800       49.78500
O         27.91900       -8.23300       49.52900
N         24.60200       -7.08400       47.83300
C         24.37200       -6.72300       46.47800
C         25.23300       -5.48800       46.27900
O         25.08200       -4.52500       47.00800
C         22.93300       -6.38700       46.24400
C         22.75200       -5.80200       44.86300
C         22.10100       -7.61800       46.39100
N         26.15600       -5.51500       45.32700
C         27.01400       -4.36600       45.13900
C         27.15700       -3.94600       43.69800
O         26.89800       -4.71500       42.79000
C         28.38900       -4.65000       45.70200
O         29.30400       -4.88800       44.64300
N         27.56000       -2.69000       43.51500
C         27.78500       -2.09100       42.20800
C         29.22500       -1.59900       42.17800
O         29.74700       -1.22100       43.21400
C         26.83200       -0.91400       41.99500
C         25.37300       -1.34100       41.92000
C         24.43300       -0.18600       42.03400
C         25.16000       -2.11200       40.61300
N         29.84800       -1.67600       41.00000
C         31.21000       -1.22700       40.73800
C         31.23600       -0.95000       39.24100
O         31.25500       -1.89000       38.44500
C         32.23700       -2.31600       41.04800
C         33.63100       -2.09200       40.40200
C         34.66700       -3.13000       40.89400
C         35.99200       -3.16200       40.09300
N         35.96700       -4.09700       38.92100
N         31.21200        0.32600       38.85800
C         31.16300        0.69800       37.46000
C         29.81700        0.26300       36.93000
O         28.79100        0.60100       37.49400
N         29.83300       -0.53700       35.87100
C         28.62100       -1.02400       35.25100
C         28.54900       -2.49900       35.42600
O         28.18400       -3.21600       34.49400
C         28.63000       -0.71800       33.76200
C         28.18100        0.68500       33.46600
O         28.80800        1.40600       32.67000
N         27.07800        1.08000       34.08500
N         28.94800       -2.94800       36.60900
C         28.92900       -4.34400       36.99900
C         27.95900       -4.48500       38.15400
O         27.81900       -3.58500       38.94500
C         30.32300       -4.75100       37.44700
C         31.36600       -4.51500       36.37300
O         31.24000       -5.01900       35.26000
N         32.39900       -3.75100       36.69600
N         27.23100       -5.58600       38.19100
C         26.28800       -5.88100       39.25800
C         26.85500       -7.11700       39.90600
O         27.07900       -8.08700       39.22500
C         24.89700       -6.21500       38.71800
C         23.94800       -6.66400       39.84600
C         23.82400       -5.57400       40.81400
C         22.53000       -7.03200       39.37600
N         27.06000       -7.08500       41.21300
C         27.73900       -8.17500       41.91600
C         26.95900       -8.85200       43.00900
O         26.38200       -8.16800       43.84400
C         28.99800       -7.62900       42.52100
C         29.92400       -7.23100       41.39100
C         29.67300       -8.66100       43.34100
C         30.53600       -5.88500       41.59000
N         26.93600      -10.19400       42.98800
C         26.32700      -10.96700       44.07600
C         27.48400      -11.55100       44.81400
O         28.52600      -11.85800       44.27700
C         25.42100      -12.08900       43.62800
C         24.88500      -12.95800       44.75300
C         25.12600      -14.29200       44.95000
C         24.00200      -12.57000       45.79400
N         24.44100      -14.74600       46.04600
C         23.73800      -13.69900       46.57600
C         23.41000      -11.37000       46.15800
C         22.89500      -13.66100       47.68300
C         22.58500      -11.33700       47.26700
C         22.33800      -12.47000       48.01300
N         27.30600      -11.71200       46.08800
C         28.46900      -12.02700       46.85300
C         28.01000      -12.70000       48.16100
O         27.20400      -12.15400       48.91000
C         29.33300      -10.66500       46.87600
O         30.23800      -10.59000       47.96100
C         28.44200       -9.38600       47.03000
N         28.41400      -13.96800       48.31400
C         28.17000      -14.78000       49.51800
C         29.45700      -15.01300       50.31500
O         30.46200      -15.44600       49.76200
C         27.69700      -16.17400       49.14500
C         26.27100      -16.52400       48.77700
C         26.25400      -17.98200       48.31700
C         25.40900      -16.34800       49.97600
N         29.41100      -14.78600       51.62100
C         30.56800      -15.03100       52.46100
C         30.23600      -15.82300       53.74600
O         29.26500      -15.51300       54.46700
C         31.22600      -13.71300       52.79700
C         32.05000      -13.78300       54.02300
C         33.52300      -13.87900       53.72800
C         34.34000      -13.22300       54.87300
N         34.51800      -11.75900       54.69800
N         31.06800      -16.83200       54.03300
C         30.83600      -17.77600       55.13100
C         31.81100      -17.68400       56.30000
O         33.00500      -17.39200       56.12700
C         30.85600      -19.21100       54.58800
C         32.25800      -19.85500       54.58700
O         33.24500      -19.28400       55.10300
O         32.46200      -20.98100       54.09100
N         31.31300      -18.01500       57.48600
C         32.09500      -17.95600       58.72000
C         33.60600      -18.18500       58.58200
O         34.38200      -17.53100       59.28400
C         31.52500      -18.94600       59.74000
O         30.13100      -18.72300       59.92100
N         34.01600      -19.11000       57.70300
C         35.44500      -19.44100       57.50300
C         36.19500      -18.31200       56.79700
O         37.42400      -18.23700       56.84800
C         35.59200      -20.75000       56.71700
N         35.43700      -17.42200       56.15900
C         36.00800      -16.31700       55.41800
C         36.03700      -16.62600       53.92900
O         36.70100      -15.93200       53.16400
N         35.31200      -17.65600       53.51400
C         35.30200      -18.06300       52.11100
C         34.19700      -17.33700       51.41100
O         33.10800      -17.17300       51.96500
C         35.14200      -19.57600       51.98200
C         36.38900      -20.30500       52.41200
C         37.57400      -19.99100       51.52900
O         37.49100      -20.27200       50.29200
O         38.59000      -19.48500       52.07500
N         34.48700      -16.91800       50.18800
C         33.56500      -16.12700       49.39600
C         33.13500      -16.83200       48.12300
O         33.90300      -17.57900       47.52100
C         34.26800      -14.84800       48.92600
C         33.31500      -13.95500       48.20800
C         34.87000      -14.08200       50.07700
N         31.90100      -16.59700       47.71000
C         31.46200      -16.96800       46.37000
C         30.92600      -15.67800       45.73400
O         30.30800      -14.85200       46.41700
C         30.41800      -18.08200       46.40300
C         31.04900      -19.48400       46.45600
C         32.00200      -19.81200       45.27000
N         33.20700      -20.46700       45.76800
C         33.25200      -21.71900       46.22200
N         34.39200      -22.21600       46.69000
N         32.16400      -22.48600       46.19200
N         31.17700      -15.48500       44.44300
C         30.77600      -14.23300       43.78700
C         30.35900      -14.40200       42.36200
O         30.88600      -15.22700       41.63800
C         31.89300      -13.17100       43.82700
C         31.56700      -11.98900       44.76100
C         32.55700      -10.81100       44.66300
O         33.29300      -10.70100       43.69100
N         32.56100       -9.93300       45.67400
N         29.38500      -13.60600       41.97100
C         28.96500      -13.59000       40.58600
C         29.17400      -12.16600       40.13300
O         28.86500      -11.19800       40.83900
C         27.48400      -13.95900       40.44400
C         27.24300      -15.39200       40.89400
C         27.04100      -13.80300       39.01600
C         25.78000      -15.65400       41.19300
N         29.74000      -12.02500       38.95600
C         29.89400      -10.69500       38.43700
C         29.26000      -10.66800       37.08400
O         29.68900      -11.38300       36.16100
C         31.34700      -10.26800       38.41900
O         31.93500      -10.56100       39.69000
C         31.44500       -8.76700       38.37100
N         28.17200       -9.89900       37.01300
C         27.48900       -9.67300       35.76000
C         27.86300       -8.32900       35.17500
O         27.55400       -7.30700       35.78100
C         25.98200       -9.68500       35.91200
C         25.32200       -8.99800       34.80500
C         25.33200       -9.57000       33.54600
C         24.79000       -7.73600       34.96900
C         24.78900       -8.91700       32.47300
C         24.23800       -7.04900       33.86800
C         24.24200       -7.63900       32.62700
N         28.53700       -8.35500       34.01100
C         28.84600       -7.16600       33.18800
C         27.64600       -6.67300       32.39000
O         27.05400       -7.42800       31.61500
C         29.89600       -7.51800       32.13100
C         31.08300       -8.26900       32.67400
C         31.57500       -7.68500       33.95400
N         32.76700       -6.88200       33.74700
C         33.99600       -7.36000       33.88000
N         34.18300       -8.63300       34.23000
N         35.03600       -6.57200       33.65600
N         27.31300       -5.39600       32.49100
C         26.18000       -4.91000       31.71400
C         26.60200       -4.70700       30.29200
O         27.72100       -4.28200       30.04700
C         25.63700       -3.62300       32.28800
C         24.20500       -3.42200       31.93900
O         23.70700       -4.13800       31.03300
O         23.50400       -2.56400       32.51300
N         25.71900       -4.99900       29.33900
C         26.09300       -4.88100       27.92600
C         26.56600       -3.46500       27.67600
O         26.25800       -2.57800       28.44200
C         24.92700       -5.23400       27.01000
C         24.20900       -6.54900       27.34600
C         22.68300       -6.31500       27.27100
C         24.66500       -7.70700       26.44400
N         27.37300       -3.25900       26.65000
C         27.92900       -1.93500       26.35000
C         26.97200       -0.93800       25.65700
O         27.30600        0.24900       25.52900
C         29.07800       -2.28500       25.41400
C         28.54700       -3.46400       24.70300
C         27.90100       -4.29500       25.74700
N         25.81500       -1.41700       25.20600
C         24.80900       -0.58500       24.60500
C         23.83400       -0.16000       25.68800
O         23.01200       -0.93000       26.10300
C         24.06900       -1.40100       23.57900
C         23.06700       -0.58900       22.80800
O         22.76000        0.56300       23.20900
O         22.54000       -1.03600       21.77900
N         23.88200        1.08400       26.11400
C         23.10300        1.49200       27.25900
C         21.62300        1.62400       26.99300
O         20.82500        1.63200       27.93000
C         23.70700        2.76200       27.84000
C         25.21100        2.57900       28.09300
C         25.45600        1.23200       28.80000
C         26.92400        0.80700       28.94700
N         27.88900        1.92900       29.10700
N         21.23700        1.67800       25.72500
C         19.82200        1.75600       25.40000
C         19.14900        0.48200       25.86300
O         17.97000        0.50300       26.29500
C         19.58700        1.95300       23.89600
C         18.18200        2.38600       23.55300
C         17.78700        3.70300       23.69300
C         17.26100        1.47400       23.11200
C         16.46900        4.09200       23.37900
C         15.96200        1.85100       22.79600
C         15.56400        3.14800       22.92800
N         19.90600       -0.61700       25.81700
C         19.36700       -1.91600       26.15300
C         19.73300       -2.40100       27.54000
O         18.90900       -2.99600       28.24500
C         19.70800       -2.92100       25.05300
C         18.82300       -2.74200       23.85400
O         17.79500       -2.07400       23.93800
N         19.21200       -3.31700       22.72000
N         20.97200       -2.12100       27.91900
C         21.53400       -2.37000       29.25000
C         20.57500       -2.41400       30.40700
O         19.61400       -1.66600       30.43000
C         22.53200       -1.29300       29.53800
N         20.92000       -3.22500       31.41100
C         20.11600       -3.39400       32.62200
C         20.44400       -2.37400       33.70400
O         19.65800       -2.11100       34.60300
C         20.27300       -4.83100       33.15500
C         19.84400       -5.83500       32.12200
C         18.52500       -5.98100       31.79300
C         20.76400       -6.59200       31.42600
C         18.11500       -6.87700       30.81000
C         20.36600       -7.47600       30.43400
C         19.03600       -7.61300       30.14100
O         18.60600       -8.49900       29.18800
N         21.60600       -1.77000       33.62200
C         21.95000       -0.72100       34.58300
C         22.04200        0.65400       33.94600
O         23.09000        1.27400       34.01400
C         23.30500       -1.02100       35.18400
C         23.44000       -2.39900       35.80000
C         24.80300       -2.47400       36.43300
C         22.37300       -2.61300       36.81500
N         20.96500        1.09300       33.29500
C         20.90000        2.40300       32.65600
C         19.54100        3.09700       32.88500
O         18.83400        3.40500       31.97100
C         21.20100        2.27700       31.22600
N         19.26100        3.37600       34.15200
C         17.98700        3.92600       34.68300
C         16.64200        3.41200       34.17500
O         15.65700        4.12500       34.19700
C         18.00700        5.45000       35.03300
C         17.56100        6.29800       33.95600
O         16.62400        7.09800       34.11700
N         18.24800        6.20500       32.82300
N         16.58000        2.12800       33.85600
C         15.28200        1.48900       33.67400
C         15.09800        0.58600       34.87800
O         16.06900        0.09800       35.44400
C         15.17800        0.61400       32.40500
C         15.05500        1.31000       31.06600
C         15.79200        0.45100       29.99800
C         15.12600        0.41400       28.68100
N         15.68000       -0.67700       27.84200
N         13.86200        0.37300       35.31000
C         13.62500       -0.60800       36.34200
C         13.88300       -2.00300       35.78900
O         13.35400       -2.32600       34.73300
C         12.16200       -0.55900       36.78600
C         11.80200        0.58000       37.62100
C         11.17900        1.69800       37.22900
C         12.02200        0.71600       39.02900
N         10.98100        2.53800       38.29600
C         11.49000        1.94500       39.41900
C         12.61700       -0.09200       40.00400
C         11.54900        2.40100       40.73200
C         12.65500        0.35000       41.30800
C         12.14500        1.58600       41.66400
N         14.66000       -2.83600       36.51300
C         14.92700       -4.22200       36.11700
C         14.65100       -5.13200       37.30600
O         14.69600       -4.68300       38.43700
C         16.35300       -4.44600       35.65800
C         16.50000       -4.08000       34.23700
C         17.32000       -3.66200       36.48300
N         14.36800       -6.40900       37.05800
C         13.97500       -7.27100       38.13900
C         15.02800       -8.28300       38.43000
O         15.29000       -9.16500       37.62400
C         12.67500       -7.98000       37.81900
C         12.22600       -8.90200       38.90300
C         11.83300       -8.40800       40.12400
C         12.20500      -10.27100       38.69800
C         11.43200       -9.27700       41.14100
C         11.81000      -11.13800       39.68600
C         11.42800      -10.65000       40.91000
N         15.63000       -8.16000       39.59600
C         16.69900       -9.04100       39.99900
C         16.18800      -10.19100       40.83700
O         15.30900      -10.01100       41.69500
C         17.69800       -8.25100       40.86000
C         17.98300       -6.91800       40.20300
C         19.00300       -9.06400       41.07700
C         18.76100       -7.06000       38.95700
N         16.70800      -11.37600       40.57100
C         16.40700      -12.50900       41.40900
C         17.68700      -13.31500       41.57600
O         18.36200      -13.60000       40.60900
C         15.25300      -13.36800       40.88600
O         15.29100      -14.65300       41.54100
C         15.39400      -13.70700       39.42400
N         18.08200      -13.58700       42.81800
C         19.20900      -14.47100       43.01700
C         18.83000      -15.66000       43.85600
O         18.30400      -15.51700       44.92400
C         20.35100      -13.73700       43.62000
C         20.61900      -12.52700       42.75500
C         21.51500      -14.62000       43.63800
C         21.99000      -12.08900       42.77600
N         19.08400      -16.84500       43.32200
C         18.69800      -18.08800       43.97400
C         19.98200      -18.76000       44.31900
O         20.93400      -18.74300       43.54500
C         17.88200      -18.93600       43.01600
O         18.66500      -19.25600       41.85500
C         16.72100      -18.10600       42.45200
N         20.04400      -19.29000       45.51700
C         21.22700      -19.97100       45.95800
C         20.85200      -21.33400       46.45200
O         20.26500      -21.44300       47.52100
C         21.84700      -19.23000       47.12700
C         22.00600      -17.75200       46.89300
O         23.12400      -17.28900       46.68600
N         20.90900      -16.98900       47.01200
N         21.18200      -22.37200       45.69000
C         20.95300      -23.74700       46.11100
C         22.21000      -24.32600       46.71600
O         23.11800      -24.73200       45.99000
C         20.56900      -24.65400       44.96200
C         20.47600      -26.07200       45.40900
O         19.44400      -26.72400       45.13500
O         21.37900      -26.59700       46.10800
N         22.23800      -24.46000       48.03400
C         23.47000      -24.83900       48.70800
C         24.09700      -26.14700       48.22800
O         25.28600      -26.35400       48.44100
C         23.25000      -24.86000       50.21000
C         22.75000      -23.53900       50.74200
C         23.73200      -22.40700       50.52300
N         24.99000      -22.73800       51.17100
C         25.27900      -22.45600       52.44000
N         24.41600      -21.77300       53.19600
N         26.44400      -22.82800       52.94900
N         23.31300      -26.99800       47.56300
C         23.80100      -28.27200       47.02200
C         24.27100      -28.15200       45.57300
O         24.62800      -29.15900       44.96100
C         22.72100      -29.36400       47.14300
C         22.40200      -29.76400       48.60200
C         21.27200      -30.76200       48.70700
C         23.63600      -30.31100       49.32700
N         24.24700      -26.93500       45.01600
C         24.77500      -26.70900       43.67100
C         25.24900      -25.26800       43.48300
O         26.34200      -24.91200       43.93300
C         23.78400      -27.13700       42.57800
O         22.65000      -26.28700       42.51200
N         24.41600      -24.41800       42.87800
C         24.87800      -23.10700       42.45000
C         24.16900      -21.88600       43.00100
O         23.14400      -21.97400       43.64700
C         24.76100      -23.04800       40.93500
O         26.03900      -23.00000       40.31500
N         24.77300      -20.73200       42.78300
C         24.05400      -19.48800       42.96600
C         23.83400      -19.00100       41.53500
O         24.78200      -18.96200       40.75700
C         24.85000      -18.48900       43.78400
N         22.58300      -18.71300       41.16900
C         22.24100      -18.22400       39.81300
C         21.75600      -16.78900       39.84600
O         20.91100      -16.43500       40.67400
C         21.13100      -19.05700       39.18700
C         21.58400      -20.43500       38.78100
O         20.89600      -21.39000       39.05600
N         22.70000      -20.53800       38.07800
N         22.31000      -15.94900       38.97300
C         21.90500      -14.55200       38.90200
C         21.04100      -14.32900       37.67900
O         21.49500      -14.53200       36.54000
C         23.10500      -13.63300       38.80800
C         22.66300      -12.20100       38.46000
C         21.64500      -11.63200       39.46300
C         23.84100      -11.21700       38.34900
N         19.80000      -13.91600       37.91100
C         18.88800      -13.60900       36.81800
C         18.63700      -12.08600       36.76600
O         18.78600      -11.37400       37.77300
C         17.53200      -14.30100       37.02300
C         17.49300      -15.81400       37.10500
C         17.63400      -16.47100       38.32500
C         17.23000      -16.58100       35.97800
C         17.56100      -17.87200       38.41000
C         17.13600      -17.94800       36.04900
C         17.31100      -18.59700       37.27100
O         17.24100      -19.96200       37.35300
N         18.29300      -11.59100       35.58100
C         17.79700      -10.21200       35.42300
C         16.55900      -10.31600       34.52200
O         16.59400      -10.96100       33.47300
C         18.86900       -9.26400       34.84000
C         20.05300       -9.13300       35.79800
C         18.31400       -7.89300       34.69400
C         21.30000       -8.52600       35.15700
N         15.44300       -9.74900       34.94100
C         14.23800       -9.85300       34.13800
C         13.90300      -11.29200       33.66900
O         13.36700      -11.49500       32.59800
C         14.31100       -8.87300       32.96200
C         14.00400       -7.46900       33.38900
O         13.72200       -7.24700       34.55800
N         14.07100       -6.50400       32.46700
N         14.20000      -12.28200       34.50000
C         13.80100      -13.65300       34.25200
C         14.74400      -14.44500       33.39400
O         14.41100      -15.54100       32.97900
N         15.91000      -13.88200       33.12000
C         16.89500      -14.53600       32.29900
C         18.09100      -14.79500       33.16600
O         18.33300      -14.07700       34.13000
C         17.31000      -13.65700       31.12800
C         18.70300      -14.04300       30.59500
C         16.28000      -13.71700       30.02000
N         18.82800      -15.84900       32.84200
C         20.00200      -16.23400       33.59100
C         21.20700      -15.44700       33.11300
O         21.68700      -15.64700       32.01000
C         20.25200      -17.71200       33.37300
C         21.51400      -18.31000       33.96400
C         21.68600      -17.86300       35.41100
C         21.41700      -19.82000       33.83600
N         21.72000      -14.57600       33.96300
C         22.84200      -13.75400       33.58800
C         24.15600      -14.26400       34.11100
O         25.17800      -14.12500       33.46400
C         22.61900      -12.35200       34.11800
C         21.27900      -11.79600       33.72400
S         21.09000      -11.66200       31.94600
C         22.78000      -11.35800       31.43300
N         24.15400      -14.83400       35.29600
C         25.40900      -15.31300       35.83300
C         25.18200      -16.35200       36.88300
O         24.06300      -16.52900       37.31400
N         26.25000      -17.00900       37.31400
C         26.12900      -18.12200       38.23400
C         27.46200      -18.59000       38.74400
O         28.47300      -18.43100       38.08300
C         25.53700      -19.30300       37.47700
O         26.47500      -19.72900       36.51700
N         27.46600      -19.22300       39.89900
C         28.71200      -19.76500       40.42600
C         28.48400      -20.89900       41.39800
O         27.46300      -20.95000       42.07400
C         29.49600      -18.69000       41.09900
N         29.47000      -21.79000       41.48200
C         29.38900      -22.95200       42.36900
C         29.54500      -22.58600       43.82300
O         30.54600      -22.00900       44.22700
C         30.42400      -24.00600       41.98200
C         29.76500      -25.22800       41.37500
C         28.75500      -24.83500       40.31800
O         27.67900      -25.45500       40.24200
O         29.04100      -23.88000       39.57200
N         28.54800      -22.93200       44.61900
C         28.58200      -22.57700       46.02700
C         28.69900      -23.81100       46.94700
O         28.65200      -23.70600       48.17700
C         27.38700      -21.67300       46.36100
C         26.05100      -22.40900       46.23300
C         27.38300      -20.50000       45.42000
C         24.87400      -21.60100       46.78600
N         28.86100      -24.97700       46.32900
C         29.10900      -26.20700       47.05700
C         30.45900      -26.07700       47.77800
O         31.51600      -25.99400       47.13500
C         29.20100      -27.38600       46.06700
O         29.79100      -26.91700       44.85000
C         27.84100      -27.86400       45.60000
N         30.45800      -26.04600       49.09500
C         31.73900      -25.99300       49.75800
C         31.85900      -24.98400       50.86500
O         32.77000      -25.06200       51.68300
N         30.95300      -24.02600       50.91200
C         31.02700      -23.07000       51.99200
C         30.02400      -23.54900       52.95000
O         29.00900      -24.09400       52.54800
C         30.68400      -21.67000       51.56100
C         29.68400      -21.57700       50.43900
C         29.09400      -20.19600       50.50500
C         30.36800      -21.82500       49.11200
N         30.31900      -23.35400       54.22200
C         29.44500      -23.80300       55.27200
C         29.25700      -22.74100       56.33400
O         30.19000      -22.00800       56.71300
N         28.02500      -22.67400       56.81800
C         27.64500      -21.74500       57.86900
C         27.76700      -20.27500       57.45400
O         28.80800      -19.62400       57.56300
C         28.40900      -22.02500       59.11800
N         26.67300      -19.76500       56.94000
C         26.62100      -18.36900       56.69100
C         25.99500      -17.78300       57.94600
O         24.82000      -17.96600       58.22200
C         25.81400      -18.09400       55.45200
C         26.50700      -18.79300       54.27400
C         25.65000      -16.60500       55.29200
C         26.83400      -17.92900       53.13400
N         26.81500      -17.11800       58.73300
C         26.37200      -16.50800       59.97000
C         26.43200      -14.99000       59.82600
O         27.49700      -14.41600       59.89300
C         27.29300      -16.94600       61.10900
C         26.87000      -16.38500       62.45700
C         27.52700      -17.02000       63.66500
N         26.63700      -16.96400       64.83200
C         26.02600      -18.02700       65.38400
N         26.19800      -19.25200       64.88100
N         25.22700      -17.86600       66.44000
N         25.30300      -14.32200       59.64000
C         25.36800      -12.87900       59.44000
C         24.61000      -12.03400       60.44100
O         24.04200      -12.51200       61.41900
C         24.97400      -12.44400       58.01000
C         24.12400      -13.37300       57.15900
C         22.65800      -13.33100       57.54200
O         22.38800      -13.04600       58.73500
O         21.79600      -13.59100       56.66300
N         24.64800      -10.74500       60.13900
C         24.01700       -9.71100       60.90800
C         22.57400      -10.04900       61.11600
O         21.98700      -10.76200       60.32800
C         24.12200       -8.40600       60.11200
C         24.00500       -7.17800       60.98600
O         23.52400       -7.32700       62.13400
O         24.34100       -6.02400       60.62200
N         21.97600       -9.53900       62.18300
C         20.54200       -9.78200       62.39100
C         19.67700       -8.77000       61.70000
O         18.45400       -8.75600       61.88300
C         20.16200       -9.78500       63.86200
C         21.21800       -9.19100       64.75200
O         21.42500       -7.97100       64.77700
N         21.87500      -10.05300       65.53400
N         20.31200       -7.91200       60.91100
C         19.61100       -6.86700       60.19500
C         19.94500       -7.01900       58.73700
O         21.07900       -7.35100       58.42800
C         20.08600       -5.48300       60.68300
C         19.60100       -5.13800       62.10400
O         18.47100       -5.41800       62.46900
N         20.45000       -4.48900       62.88300
N         18.97900       -6.85000       57.84600
C         19.29700       -6.76100       56.42200
C         19.40500       -5.22900       56.21400
O         18.51200       -4.48300       56.64800
C         18.18000       -7.32700       55.51900
C         18.09500       -8.86000       55.58800
C         18.38100       -6.82300       54.10200
C         19.19200       -9.60300       54.86600
N         20.45900       -4.73600       55.56700
C         20.57500       -3.27500       55.45900
C         20.45500       -2.71400       54.06100
O         21.17700       -3.15500       53.18000
C         21.89700       -2.78900       56.04800
O         21.85700       -2.90700       57.46600
C         22.08900       -1.31200       55.85900
N         19.56700       -1.71800       53.90000
C         19.39000       -0.98600       52.63500
C         20.00300        0.40200       52.74600
O         19.41700        1.27300       53.37900
C         17.91300       -0.84600       52.28000
C         17.28400       -2.00600       51.50900
C         17.40200       -3.25400       52.28500
C         15.81700       -1.78500       51.23000
N         21.16000        0.59900       52.10000
C         21.90200        1.85800       52.16200
C         23.12000        1.79400       51.24400
O         23.63400        0.71900       51.05100
C         22.36600        2.06200       53.63100
C         23.71700        2.80600       53.86700
C         24.62200        2.09000       54.88400
C         24.77100        2.83200       56.21700
N         24.39500        4.26500       56.15000
N         23.58600        2.92300       50.69500
C         24.82900        2.95000       49.89000
C         25.98900        2.91600       50.83700
O         26.09200        3.73800       51.77200
C         24.97900        4.21500       49.03200
C         23.83100        4.66200       48.10600
C         24.28800        5.73900       47.13700
C         23.31700        3.54200       47.34400
N         26.89900        1.98600       50.59000
C         27.97300        1.74400       51.53200
C         29.35300        1.78300       50.88900
O         29.66300        0.90700       50.09300
C         27.69400        0.36700       52.13400
C         28.49600        0.08300       53.35700
O         29.72600       -0.16100       53.23800
O         27.96800        0.03500       54.48200
N         30.18300        2.75100       51.30000
C         31.53800        3.03400       50.73900
C         31.52800        3.43400       49.25700
O         32.45300        3.10900       48.50000
C         32.59700        1.94500       51.06700
C         34.10400        2.06800       50.41600
C         34.87500        3.45400       50.34200
N         35.67000        3.48900       49.09700
C         36.92700        3.95400       48.91500
N         37.46600        3.88900       47.69000
N         37.64300        4.48900       49.89900
N         30.48100        4.16700       48.86500
C         30.37300        4.74100       47.52300
C         31.05300        6.10600       47.47000
O         30.72200        7.00300       48.22900
C         28.91000        4.90100       47.13800
S         28.67700        5.54200       45.47600
N         31.99500        6.25500       46.55600
C         32.77600        7.46500       46.47400
C         32.02900        8.67700       45.92100
O         32.26000        9.80500       46.37000
C         34.02900        7.21400       45.63200
C         35.17000        6.59800       46.43800
O         35.13200        6.55600       47.66900
N         36.19900        6.12500       45.73600
N         31.14400        8.44900       44.95300
C         30.43500        9.52700       44.26000
C         29.29800       10.11500       45.08600
O         28.30700        9.43100       45.31900
C         29.90700        8.98200       42.94600
C         28.83900        9.85300       42.33700
O         28.60800       10.98300       42.77100
N         28.17400        9.32700       41.31800
N         29.44500       11.37400       45.53100
C         28.42300       12.04000       46.35700
C         27.06500       12.12500       45.68700
O         26.06800       12.43000       46.33400
C         28.85600       13.46700       46.77600
C         28.97900       13.64000       48.32100
O         27.97900       13.83300       49.02800
N         30.20400       13.58000       48.83100
N         27.03100       11.83600       44.38900
C         25.82900       11.95900       43.61900
C         25.02600       10.70600       43.37000
O         23.86600       10.82600       43.02600
C         26.16100       12.66500       42.31600
C         26.46000       14.12200       42.54400
O         25.54300       14.90600       42.83800
N         27.74800       14.49600       42.47400
N         25.58500        9.51300       43.58600
C         24.81300        8.29700       43.34000
C         23.48600        8.23300       44.07200
O         23.36100        8.70500       45.19000
C         25.58400        7.02400       43.74400
C         26.26500        6.30200       42.58100
C         25.29000        5.72800       41.59800
O         24.17400        5.37100       41.95500
N         25.70800        5.63600       40.35600
N         22.52800        7.58400       43.41400
C         21.27400        7.21500       44.00300
C         20.92600        5.82700       43.43300
O         21.62900        5.33300       42.54300
C         20.18700        8.26500       43.75400
C         20.05400        8.83300       42.34700
C         19.13300        8.31100       41.46100
C         20.79500        9.93800       41.93100
C         18.97300        8.81500       40.25200
C         20.61700       10.45800       40.66800
C         19.69800        9.88100       39.85500
O         19.48600       10.32200       38.60000
N         19.91700        5.15500       44.00200
C         19.39600        3.89900       43.44800
C         18.04900        3.72700       44.07400
O         17.79500        4.28300       45.13900
C         20.18900        2.62100       43.78600
C         21.64500        2.73400       43.40200
C         20.03100        2.27300       45.24500
N         17.18700        2.99400       43.37200
C         15.84000        2.70300       43.81800
C         15.69100        1.17700       43.94200
O         16.25200        0.44700       43.15100
C         14.82800        3.31000       42.86000
O         15.07200        4.70100       42.76900
N         14.99300        0.72300       44.98700
C         14.72500       -0.67400       45.21300
C         13.25100       -0.84300       45.52900
O         12.76300       -0.10600       46.36200
C         15.53600       -1.13600       46.45400
C         17.02900       -1.05700       46.18200
C         15.20500       -2.57700       46.84800
C         17.78700       -0.68700       47.37600
N         12.56600       -1.82200       44.91200
C         11.14000       -2.08900       45.18900
C         10.87300       -3.57500       45.42400
O         11.57500       -4.42300       44.88100
C         10.26700       -1.63900       44.02500
C          8.82000       -1.38000       44.43700
O          8.49700       -1.41800       45.66100
O          7.93400       -1.11200       43.59000
N          9.86500       -3.88000       46.24600
C          9.42200       -5.25200       46.48100
C         10.51100       -6.19600       46.92100
O         10.56100       -7.33600       46.43900
C          8.81100       -5.83900       45.20200
C          7.65300       -5.07700       44.65700
C          6.43100       -5.33700       45.50900
C          5.18000       -4.55300       45.00600
N          3.94700       -4.84400       45.85200
N         11.39100       -5.74300       47.80500
C         12.48000       -6.58300       48.29000
C         11.94200       -7.85200       48.94100
O         11.04500       -7.78500       49.79600
C         13.31900       -5.85300       49.30700
C         14.53700       -6.57000       49.64000
C         15.52100       -6.71900       48.68500
C         14.69100       -7.16700       50.85700
C         16.65300       -7.42500       48.95300
C         15.82100       -7.89100       51.11800
C         16.79900       -8.01700       50.16200
N         12.50300       -8.99900       48.57200
C         11.88200      -10.25200       48.96500
C         12.84900      -11.38500       49.16000
O         13.78900      -11.55100       48.40200
C         10.89400      -10.64400       47.86900
C          9.80200      -11.62200       48.25500
C          8.50600      -11.31900       47.48800
N          7.53300      -12.39200       47.53500
C          6.48500      -12.45100       46.74800
N          6.26300      -11.49000       45.85300
N          5.66200      -13.47100       46.83300
N         12.58100      -12.19700       50.17400
C         13.41500      -13.34300       50.45600
C         12.50200      -14.54700       50.52200
O         11.47300      -14.52400       51.22700
C         14.13700      -13.16000       51.79700
C         14.73700      -11.76000       51.90500
C         15.21300      -14.22700       51.99700
C         16.21500      -11.69700       51.60200
N         12.86300      -15.57400       49.75300
C         12.15700      -16.83900       49.73300
C         13.07900      -17.84300       50.37000
O         14.30700      -17.75400       50.23300
C         11.91100      -17.34900       48.31800
C         11.16200      -16.42700       47.45500
C         11.83400      -15.47300       46.72200
C          9.78600      -16.53900       47.32900
C         11.15600      -14.63500       45.91600
C          9.10500      -15.71000       46.52000
C          9.78000      -14.75800       45.79500
N         12.50500      -18.84000       51.03300
C         13.35600      -19.85000       51.61600
C         13.57000      -21.00700       50.64000
O         13.36700      -22.12700       50.98600
C         12.82100      -20.29100       52.97100
S         11.06200      -20.68200       53.01100
N         13.99600      -20.71200       49.41000
C         14.37600      -21.75700       48.43700
C         14.95700      -21.25400       47.11900
O         14.70100      -20.14500       46.67200
C         13.20200      -22.68200       48.12400
C         12.39800      -22.35800       46.89400
C         11.21100      -23.28300       46.84800
C         10.77800      -23.63300       45.43100
N         11.56800      -24.74700       44.87300
N         15.78900      -22.07900       46.51100
C         16.22200      -21.82000       45.15500
C         14.95100      -21.96300       44.33200
O         14.37600      -23.05300       44.26500
C         17.22800      -22.85300       44.74200
N         14.44100      -20.86800       43.78100
C         13.26200      -20.97800       42.93500
C         13.77700      -21.43300       41.59300
O         14.90900      -21.16500       41.28400
C         12.57700      -19.63200       42.75300
C         12.13000      -18.82300       43.94900
C         11.93600      -17.41700       43.48800
C         10.84000      -19.34300       44.58200
N         12.95900      -22.09300       40.78900
C         13.37000      -22.47100       39.42600
C         12.89900      -21.39800       38.45600
O         12.04400      -20.58600       38.81300
C         12.78400      -23.82800       39.01600
C         11.34600      -23.93000       39.37200
O         10.63600      -22.94300       39.28300
N         10.90900      -25.09200       39.82300
N         13.45600      -21.38700       37.24600
C         13.11500      -20.37300       36.24900
C         11.62500      -20.30300       35.96700
O         11.10800      -19.20100       35.77200
C         13.87800      -20.83400       35.00600
C         15.05700      -21.55500       35.56100
C         14.46700      -22.33000       36.72900
N         10.93000      -21.43200       35.94200
C          9.49300      -21.34900       35.72200
C          8.87100      -20.69000       36.96600
O          7.83700      -20.06100       36.87800
C          8.87900      -22.70400       35.36000
C          9.21800      -23.11100       33.88800
C          8.78000      -24.52800       33.48300
C          9.59800      -25.06200       32.26700
N          9.64000      -26.60000       32.11900
N          9.50900      -20.80700       38.12600
C          9.02400      -20.07000       39.31400
C          9.39000      -18.59100       39.12800
O          8.60900      -17.67100       39.38500
C          9.68100      -20.58700       40.59900
C          8.91900      -21.66800       41.33800
C          9.84900      -22.70700       41.93900
O         10.99600      -22.35300       42.28100
O          9.44100      -23.88900       42.04100
N         10.60500      -18.39200       38.65200
C         11.11600      -17.08000       38.38000
C         10.28300      -16.29800       37.36400
O          9.87400      -15.15500       37.60400
C         12.56600      -17.24900       37.94600
C         13.34600      -17.71200       39.17000
C         13.12000      -15.98000       37.39500
C         14.80500      -17.64600       39.01400
N         10.00700      -16.91000       36.23100
C          9.17900      -16.25800       35.23800
C          7.83400      -15.78500       35.83200
O          7.37200      -14.68800       35.56600
C          8.94500      -17.21800       34.07800
C          8.19400      -16.57900       32.94100
C          8.89800      -15.33700       32.48400
O         10.11100      -15.41500       32.21000
O          8.26100      -14.27200       32.43000
N          7.21800      -16.60900       36.66200
C          5.91400      -16.28200       37.21200
C          6.00600      -15.20100       38.27000
O          5.07700      -14.42600       38.48800
C          5.32600      -17.53600       37.82300
C          3.91400      -17.36400       38.35000
C          2.86300      -17.40800       37.23400
C          1.49900      -16.88700       37.72300
N          0.64100      -17.93800       38.37300
N          7.14200      -15.14200       38.94400
C          7.32900      -14.13500       39.95600
C          7.51200      -12.76800       39.32900
O          7.03900      -11.75300       39.84400
C          8.55600      -14.47900       40.77300
C          8.96000      -13.38300       41.74900
C          7.88800      -13.25500       42.83600
C         10.32000      -13.67600       42.30600
N          8.23800      -12.77000       38.21800
C          8.54800      -11.59500       37.41400
C          7.28900      -10.97500       36.76800
O          7.03700       -9.76700       36.91300
C          9.62500      -12.01400       36.37900
C         10.03700      -11.01100       35.31500
C         10.15200       -9.64700       35.58300
C         10.33700      -11.45100       34.02300
C         10.51100       -8.74500       34.56000
C         10.70900      -10.57000       33.01100
C         10.79500       -9.22800       33.27700
O         11.17500       -8.38300       32.25100
N          6.47600      -11.78200       36.08600
C          5.30900      -11.24400       35.37700
C          4.20100      -10.82200       36.34900
O          3.30500      -10.07600       35.99500
C          4.74600      -12.29400       34.42700
O          4.50100      -13.49700       35.15800
C          5.74000      -12.71600       33.35500
N          4.26200      -11.30800       37.57400
C          3.23600      -11.03200       38.55400
C          3.21700       -9.58500       38.97500
O          2.23000       -9.09200       39.53300
C          3.50400      -11.84600       39.81200
O          4.50500      -11.22200       40.61000
N          4.32900       -8.91800       38.72600
C          4.50600       -7.55800       39.17100
C          4.03600       -6.59800       38.13900
O          3.75100       -5.45100       38.46100
C          5.97000       -7.29100       39.43400
C          6.47400       -7.92700       40.70600
C          6.01000       -7.52300       41.92100
C          7.40700       -8.94900       40.66800
C          6.44100       -8.12200       43.08200
C          7.86400       -9.53200       41.81600
C          7.38000       -9.10700       43.02200
O          7.80900       -9.68000       44.18700
N          3.93700       -7.10800       36.90600
C          3.55300       -6.36800       35.72500
C          2.03500       -6.34200       35.44000
O          1.58600       -6.85900       34.42400
C          4.27300       -7.01700       34.52900
C          5.78800       -7.10700       34.66600
C          6.48200       -7.60900       33.41000
C          6.27900       -5.73500       34.99000
N          1.22900       -5.76200       36.31300
C         -0.20300       -5.64700       35.99600
C         -0.54000       -4.49800       35.03800
O         -0.45600       -3.33400       35.43600
C         -1.03700       -5.46300       37.26700
O         -2.42700       -5.38700       36.93100
N         -0.91500       -4.86700       33.80300
C         -1.42400       -4.01500       32.70200
C         -2.21700       -2.73000       33.01000
O         -2.22600       -1.78100       32.22400
C         -2.40600       -4.87300       31.81800
C         -2.03400       -6.36500       31.80100
C         -2.45800       -4.34200       30.39900
C         -2.41900       -7.16600       33.08900
N         -2.95400       -2.72500       34.10500
C         -3.81700       -1.59900       34.44700
C         -3.14600       -0.18600       34.38000
O         -3.83900        0.83000       34.29000
C         -4.41300       -1.89800       35.83300
O         -5.18900       -0.79400       36.31100
C         -3.29800       -2.07800       36.85400
N         -1.81400       -0.11900       34.40600
C         -1.09500        1.15100       34.31700
C         -0.12600        1.14100       33.13000
O          0.54900        0.12800       32.89600
C         -0.26600        1.35500       35.59200
C         -1.04900        1.87000       36.76000
C         -1.89400        1.03200       37.47100
C         -0.93300        3.20100       37.16000
C         -2.62500        1.50700       38.56000
C         -1.66500        3.68500       38.24300
C         -2.50800        2.83500       38.94800
N         -0.00500        2.24000       32.38100
C          0.97900        2.25400       31.27900
C          2.30800        2.75900       31.79300
O          2.34700        3.52300       32.73900
C          0.53300        3.14600       30.13500
C         -0.85200        2.77900       29.66500
C         -1.29800        3.66600       28.53300
C         -0.81300        1.32800       29.25800
N          3.39600        2.38000       31.16200
C          4.68800        2.81000       31.67600
C          5.52200        3.60800       30.69300
O          5.40600        3.47000       29.46200
C          5.50500        1.61000       32.19800
C          4.68300        0.58300       32.90000
C          5.43700       -0.40100       33.76400
N          4.69300       -0.61500       35.01000
C          3.82700       -1.60800       35.23400
N          3.58800       -2.55200       34.32000
N          3.20700       -1.66900       36.39700
N          6.36900        4.45900       31.24800
C          7.25500        5.23500       30.39600
C          8.47100        4.39800       30.14200
O          8.61900        3.33200       30.71900
C          7.60400        6.62700       30.95200
C          8.33800        6.60800       32.27200
O          9.22300        5.77200       32.52700
O          8.09200        7.48500       33.12600
N          9.35400        4.90700       29.30600
C         10.52700        4.16100       28.90300
C         11.22100        3.57500       30.12600
O         11.72300        2.46600       30.09800
C         11.42200        5.07600       28.07600
C         12.70300        4.44200       27.62400
C         12.70500        3.50700       26.63600
C         13.89500        4.82200       28.16200
C         13.86100        2.92700       26.21100
C         15.07100        4.23500       27.72900
C         15.03000        3.28300       26.74200
N         11.17900        4.25800       31.25000
C         11.92500        3.77800       32.39900
C         11.19900        2.84800       33.30000
O         11.81800        2.33300       34.22400
C         12.41700        4.91900       33.28300
C         12.97000        6.13300       32.55700
C         12.40000        7.34300       32.49400
C         14.18600        6.21700       31.80700
N         13.16800        8.19300       31.74100
C         14.25900        7.51500       31.28400
C         15.20600        5.31100       31.49600
C         15.30900        7.95400       30.52300
C         16.26100        5.74900       30.73300
C         16.30100        7.06500       30.24700
N          9.90600        2.62600       33.11200
C          9.23900        1.64700       33.94200
C          8.39500        2.31100       34.98200
O          7.72800        1.66800       35.81900
N          8.40500        3.62400       34.90900
C          7.68100        4.42100       35.84800
C          6.36500        4.66000       35.20400
O          6.27400        4.54300       33.99500
C          8.41100        5.73000       36.07400
C          9.53100        5.62200       37.08700
O          9.54600        4.74100       37.97900
N         10.49000        6.51600       36.96600
N          5.33800        5.01100       35.95700
C          4.03200        5.22800       35.35900
C          3.96900        6.39500       34.38600
O          4.58600        7.43700       34.56600
C          3.12800        5.48400       36.56200
C          3.84300        5.01000       37.69800
C          5.30600        5.23000       37.39900
N          3.17800        6.17600       33.34200
C          2.92600        7.13000       32.27100
C          2.00900        8.20500       32.82700
O          0.99200        7.88300       33.42100
C          2.24600        6.35800       31.13700
C          2.29600        6.81600       29.69400
C          1.39900        7.91200       29.59400
C          3.73500        7.19000       29.21300
N          2.37700        9.47200       32.64300
C          1.58100       10.59000       33.13100
C          1.19700       11.54400       32.02900
O          1.88500       11.64800       31.01100
C          2.36100       11.43900       34.14500
C          2.91700       10.69700       35.36300
C          2.85500       11.49500       36.66300
N          2.87800       10.68200       37.90000
C          3.83000        9.79100       38.25300
N          4.88400        9.51800       37.46600
N          3.71600        9.14400       39.40700
N          0.11900       12.26800       32.27500
C         -0.32100       13.35400       31.41700
C          0.51200       14.61500       31.62800
O          1.30700       14.68600       32.54600
C         -1.75600       13.71000       31.77600
C         -2.74700       12.65400       31.39700
C         -3.13800       12.49000       30.07400
C         -3.28800       11.79400       32.35500
C         -4.05400       11.51800       29.71900
C         -4.22200       10.81600       31.99600
C         -4.59400       10.68700       30.67000
O         -5.50800        9.71700       30.28200
N          0.29600       15.60500       30.77100
C          0.94700       16.91400       30.85800
C          2.42900       16.82400       31.00500
O          3.06300       17.72600       31.55500
C          0.40000       17.69700       32.02100
C         -1.08400       17.80200       31.97300
O         -1.59800       17.89200       30.84200
O         -1.81800       17.79500       33.00600
N          3.00100       15.73100       30.56400
C          4.43300       15.66700       30.62700
C          5.00700       15.27800       29.29000
O          4.45500       14.49100       28.50500
C          4.97800       14.87000       31.86100
O          6.05900       14.03200       31.47800
C          3.98400       13.95100       32.45400
N          6.09200       15.93800       28.99200
C          6.71900       15.74700       27.73400
C          7.43800       14.42800       27.65700
O          8.14400       14.06600       28.58800
C          7.66500       16.89700       27.55900
C          7.01100       18.13300       28.11400
C          7.36200       19.36500       27.35100
O          8.49600       19.40800       26.81100
O          6.50100       20.27700       27.30300
N          7.20400       13.70400       26.56300
C          7.88400       12.44600       26.26200
C          8.32500       12.48200       24.81700
O          7.62900       13.01400       23.99500
C          6.94500       11.26400       26.38100
C          6.32400       11.02300       27.73800
C          7.09100       10.59700       28.79200
C          4.94900       11.20600       27.94600
C          6.54100       10.38700       30.04400
C          4.38700       11.01600       29.19300
C          5.20000       10.60400       30.23500
O          4.69300       10.35200       31.46100
N          9.48400       11.92900       24.50200
C          9.83600       11.64800       23.12200
C          9.34300       10.22500       22.81100
O          9.34600        9.33600       23.67500
C         11.34000       11.75500       22.88400
C         11.86300       13.10400       23.29300
C         12.14000       14.09300       22.35800
C         12.02700       13.40000       24.61200
C         12.56600       15.35300       22.75900
C         12.48300       14.64400       25.02900
C         12.74900       15.61700       24.10800
O         13.19600       16.84000       24.57700
N          8.82900       10.09100       21.59200
C          8.43000        8.85000       20.97800
C          9.60900        8.16000       20.34000
O         10.31800        8.80100       19.60200
C          7.45600        9.14500       19.84800
C          6.07900        8.99900       20.43400
C          4.99000        9.39200       19.51600
C          5.97000        7.56700       20.76700
N          9.82700        6.88100       20.66500
C         10.77800        6.05700       19.94500
C         10.09900        4.75100       19.73600
O          9.54000        4.22400       20.68400
C         12.04500        5.80800       20.71900
C         12.89600        7.07800       20.80500
C         12.88000        4.75300       20.01800
C         14.12500        6.87100       21.64300
N         10.13500        4.20500       18.51700
C          9.47500        2.92700       18.23800
C         10.32400        1.74200       18.62700
O         11.49700        1.66100       18.31800
C          9.30400        2.97100       16.74000
C         10.55500        3.61100       16.32600
C         10.80100        4.71500       17.31300
N          9.67900        0.78900       19.26700
C         10.35000       -0.36000       19.82700
C         11.05000       -1.17000       18.76900
O         12.13600       -1.72500       19.00800
C          9.30200       -1.20200       20.60600
C          9.88100       -2.53200       21.14600
C          8.74000       -0.35800       21.74700
N         10.42000       -1.21800       17.59800
C         10.85500       -2.05500       16.49800
C         11.91300       -1.33000       15.74800
O         12.55800       -1.87300       14.89100
C          9.68200       -2.35200       15.56400
N         12.07800       -0.07500       16.08200
C         13.05600        0.74100       15.41200
C         13.70900        1.67500       16.39900
O         13.89300        2.83500       16.12600
C         12.40000        1.51200       14.28100
O         12.27200        0.67200       13.16300
N         14.11400        1.10900       17.52400
C         14.69500        1.85800       18.62500
C         15.78700        2.87900       18.26800
O         16.04400        3.82100       19.03500
C         15.20300        0.87600       19.66600
O         16.50200        0.38800       19.36700
N         16.43100        2.74800       17.12000
C         17.44900        3.73800       16.80400
C         16.91900        4.93800       15.99400
O         17.73400        5.61700       15.36100
C         18.59300        3.08100       16.02800
O         18.19300        2.81400       14.67500
N         15.59800        5.21800       16.03700
C         15.02100        6.31400       15.28800
C         14.33400        7.31200       16.18300
O         13.71600        6.94100       17.15200
C         13.90900        5.85100       14.30500
C         14.22200        4.82200       13.25900
C         15.45400        5.17100       12.48200
C         15.66900        4.20300       11.35000
N         15.76500        5.02700       10.13400
N         14.39300        8.59100       15.81700
C         13.56600        9.58500       16.48600
C         12.41100        9.98400       15.57400
O         12.43500        9.68100       14.40800
C         14.38400       10.81100       16.82700
C         15.41800       10.51100       17.84500
O         15.07500        9.82400       18.82700
O         16.59700       10.87500       17.73300
N         11.39000       10.61900       16.13000
C         10.34200       11.15600       15.30900
C         10.60100       12.61900       14.89300
O         10.82200       13.46000       15.74300
C          8.99800       11.11000       16.01400
C          7.92400       11.44800       15.01100
C          8.72800        9.72500       16.56600
N         10.56800       12.89700       13.58500
C         10.62100       14.27900       13.03600
C          9.32600       14.65700       12.32600
O          8.57800       13.79500       11.91000
C         11.75600       14.44900       12.04900
C         11.98900       15.89800       11.63000
C         12.60600       16.76500       12.72800
O         11.89200       17.41400       13.50900
N         13.94100       16.78700       12.77500
N          9.07900       15.95100       12.18400
C          7.86900       16.46300       11.56100
C          8.16500       17.23600       10.31200
O          9.05100       18.06500       10.32500
C          7.22400       17.42700       12.51800
C          5.95400       18.11300       12.09400
C          4.73300       17.28400       12.34700
C          5.92400       19.38900       12.89900
N          7.39700       17.00300        9.25700
C          7.59000       17.69300        7.99800
C          7.45200       19.19900        8.12200
O          8.33500       19.97100        7.70300
C          6.54900       17.20600        6.98200
C          6.56100       17.97100        5.71200
C          7.86500       17.75500        4.96800
C          7.84800       18.48300        3.64800
N          9.19700       18.75600        3.10500
N          6.30800       19.60600        8.64600
C          5.99200       21.00000        8.83900
C          4.72200       20.96600        9.61900
O          4.00900       19.98200        9.59900
C          5.68100       21.75500        7.53200
C          6.90800       22.30400        6.84300
O          7.67700       23.05400        7.45400
N          7.09000       21.96000        5.54700
N          4.43500       22.06100       10.29200
C          3.20200       22.20200       10.98800
C          2.16000       21.92100        9.95600
O          2.29200       22.30500        8.78100
C          3.05300       23.61500       11.47000
C          4.36300       24.04300       12.15400
C          1.83600       23.73400       12.39200
C          5.51800       24.34500       11.15000
N          1.14400       21.19600       10.38200
C          0.04000       20.86000        9.51300
C          0.26200       19.55900        8.76600
O         -0.71000       18.95600        8.34800
C         -0.25600       21.99900        8.51100
O         -1.66300       22.27900        8.51300
C          0.04000       21.56400        7.07200
N          1.51600       19.11200        8.66100
C          1.89100       17.93800        7.86100
C          2.22900       16.64400        8.61500
O          1.81600       16.44800        9.75400
C          3.08200       18.28700        6.98900
C          2.89300       17.83200        5.56400
O          2.04000       16.94100        5.32000
O          3.53100       18.32000        4.62100
N          2.99100       15.76900        7.95900
C          3.29000       14.44200        8.48900
C          4.49800       14.33000        9.44400
O          5.23800       15.27400        9.65800
C          3.37800       13.39800        7.33200
C          4.56400       13.48200        6.38400
C          4.53400       14.30100        5.26100
C          5.67300       12.68800        6.57100
C          5.61900       14.36500        4.37900
C          6.73900       12.72700        5.70500
C          6.71000       13.56800        4.60600
O          7.77100       13.60000        3.73700
N          4.64700       13.14400       10.02600
C          5.74900       12.80200       10.91000
C          6.50900       11.67200       10.28800
O          5.93900       10.84900        9.62300
C          5.22000       12.32700       12.27600
C          4.84200       13.48300       13.16900
S          3.91100       13.15700       14.62200
C          2.34100       12.67400       13.96700
N          7.80600       11.62000       10.51800
C          8.57700       10.51700       10.00600
C          9.75100       10.16800       10.93200
O         10.13300       10.95100       11.80800
C          9.03000       10.84800        8.59000
C          9.83300       12.11000        8.53000
C          9.22200       13.34900        8.59000
C         11.20600       12.05900        8.43800
C          9.94700       14.48700        8.55100
C         11.94000       13.17900        8.40700
C         11.31400       14.40500        8.45500
O         12.08100       15.54700        8.42100
N         10.28000        8.96000       10.75000
C         11.39700        8.44600       11.53900
C         12.69600        8.93100       10.94100
O         12.82500        8.92000        9.73700
C         11.37200        6.91400       11.50300
C         10.11500        6.30500       12.08400
C         10.28000        4.84600       12.38800
C          9.71300        7.05800       13.33100
N         13.61400        9.44400       11.75500
C         14.97500        9.78900       11.29200
C         15.90800        9.15500       12.27400
O         15.50200        8.87900       13.38700
C         15.26700       11.28400       11.31500
O         14.98700       11.81400       12.60900
C         14.34700       12.06600       10.41800
N         17.14800        8.90800       11.87300
C         18.14900        8.33400       12.78300
C         18.55700        9.28200       13.88400
O         18.91100       10.43000       13.61300
C         19.44700        8.04500       12.03900
C         19.34000        6.87500       11.09800
O         18.24500        6.34800       10.81200
N         20.49000        6.45300       10.60100
N         18.57600        8.79700       15.11100
C         19.03200        9.62900       16.20600
C         20.55100        9.63500       16.21300
O         21.19600        8.72600       15.72800
C         18.53000        9.11100       17.48600
N         21.11600       10.67200       16.78900
C         22.56600       10.77300       16.94000
C         23.05500        9.78800       18.00200
O         22.40100        9.58300       19.00700
C         22.78400       12.21500       17.39900
C         21.45200       12.81200       17.69200
C         20.39600       11.81900       17.35800
N         24.20800        9.18700       17.77700
C         24.71300        8.17300       18.65800
C         26.00500        8.58700       19.31300
O         26.73400        9.41800       18.80200
C         24.96700        6.90000       17.86200
O         26.30900        6.87600       17.40100
N         26.28200        7.95500       20.44500
C         27.45700        8.22900       21.24500
C         28.24900        6.96500       21.48500
O         27.73200        6.01000       22.03500
C         27.01000        8.76000       22.60600
C         28.12500        9.13500       23.55600
C         29.04200       10.12200       23.22300
C         28.24800        8.52200       24.80100
C         30.04800       10.49000       24.08900
C         29.27200        8.88200       25.68000
C         30.16600        9.86700       25.31000
O         31.17100       10.23500       26.16400
N         29.50700        6.95700       21.07600
C         30.35500        5.83000       21.37600
C         31.56900        6.30900       22.16600
O         31.88500        7.49300       22.19800
C         30.79400        5.09800       20.09400
O         31.88300        5.79300       19.48800
C         29.71500        5.09300       19.04500
N         32.21100        5.37200       22.84800
C         33.43800        5.62400       23.56100
C         34.08100        4.25000       23.60000
O         33.49600        3.30700       24.12400
C         33.16200        6.15800       24.97000
C         34.42700        6.44700       25.75900
O         35.38900        5.67600       25.74500
N         34.41700        7.55000       26.48300
N         35.27700        4.13000       23.03200
C         35.96000        2.85300       22.96000
C         36.61100        2.47100       24.26900
O         36.26300        1.46500       24.89300
N         37.55400        3.28400       24.70900
C         38.26400        2.97900       25.93200
C         37.35100        2.67600       27.12600
O         37.78600        2.03100       28.05800
C         39.27900        4.07600       26.23600
C         40.59600        3.92500       25.40100
C         40.37700        3.10700       24.09100
C         41.01200        3.74300       22.85200
N         40.46900        3.13600       21.60000
N         36.10100        3.10900       27.11000
C         35.18100        2.74300       28.19000
C         34.23900        1.57300       27.84200
O         33.45200        1.13900       28.69600
C         34.36000        3.95200       28.63700
C         35.14300        5.07700       29.32100
C         34.21000        6.17500       29.77900
C         35.93700        4.57800       30.51000
N         34.34700        1.04100       26.61700
C         33.44400       -0.02000       26.11600
C         31.97300        0.33300       26.32400
O         31.21900       -0.39600       26.97800
C         33.76000       -1.39000       26.74800
C         32.83700       -2.50700       26.23600
O         32.62300       -2.64700       25.01800
N         32.27600       -3.30000       27.16900
N         31.55200        1.46100       25.77100
C         30.15300        1.88300       25.92100
C         29.58400        2.62600       24.71600
O         30.27300        3.40100       24.07900
C         30.01300        2.78100       27.15700
C         30.51500        4.19900       26.86000
C         30.79400        2.21300       28.32200
C         29.58200        5.28800       27.37600
N         28.31100        2.41200       24.41000
C         27.70100        3.15900       23.32600
C         26.21300        3.27000       23.49600
O         25.58400        2.37300       24.06400
C         28.06800        2.55800       21.94200
C         27.53100        1.17500       21.58400
C         28.31800        0.03500       21.72700
C         26.28100        1.02600       21.03300
C         27.84000       -1.23900       21.36900
C         25.79000       -0.22700       20.67600
C         26.57300       -1.36400       20.85100
O         26.05900       -2.60300       20.48800
N         25.64700        4.38700       23.04700
C         24.19200        4.50000       22.98700
C         23.68100        5.48100       21.93900
O         24.37000        6.41400       21.56100
C         23.58600        4.82600       24.35200
C         24.21900        5.97600       25.10500
C         23.69700        7.24900       24.99700
C         25.31300        5.77400       25.95200
C         24.23900        8.28700       25.68400
C         25.87600        6.81200       26.62800
C         25.33300        8.07500       26.48700
O         25.83500        9.15100       27.15300
N         22.49500        5.21900       21.41400
C         21.83600        6.19900       20.58300
C         21.48200        7.28200       21.59700
O         21.19700        6.99800       22.76800
C         20.59400        5.63700       19.87800
C         19.58100        5.02500       20.80800
C         18.49700        5.97000       21.20900
N         17.44000        6.00800       20.19000
C         16.66900        7.05300       19.91300
N         16.78700        8.17800       20.57600
N         15.73600        6.94900       18.99000
N         21.54200        8.52500       21.19100
C         21.30500        9.56400       22.14700
C         19.79600        9.77800       22.34500
O         18.99000        9.28800       21.55000
C         22.04000       10.80200       21.67700
C         23.51600       10.49100       21.34500
C         24.23100       11.65300       20.69700
N         24.06300       12.72800       21.64400
C         25.01300       13.20900       22.41300
N         26.27400       12.79000       22.28300
N         24.69300       14.15300       23.28300
N         19.41900       10.48500       23.40200
C         18.01200       10.72600       23.69100
C         17.74500       12.17900       23.82500
O         18.65600       12.94900       24.00300
C         17.59400       10.09200       25.00100
C         17.87700        8.60800       25.06100
C         17.75700        8.19000       26.49400
C         16.92400        7.81800       24.21500
N         16.46700       12.52400       23.74700
C         15.99400       13.87600       23.90700
C         15.98800       14.70200       22.63300
O         16.03400       15.91900       22.68000
C         16.76000       14.54400       25.02000
C         16.76500       13.71800       26.29000
C         15.68500       12.89700       26.64000
C         17.84300       13.75000       27.14200
C         15.70600       12.14400       27.80900
C         17.86800       13.02100       28.27100
C         16.81500       12.22200       28.61900
O         16.92600       11.51100       29.80800
N         15.91400       14.06700       21.47600
C         15.61400       14.85500       20.28600
C         14.53000       14.18000       19.51700
O         14.31300       12.97400       19.64500
C         16.75300       15.07900       19.31000
C         18.07800       14.82900       19.87600
O         18.93200       15.69300       19.82800
N         18.31500       13.61500       20.31500
N         13.90000       14.97000       18.66600
C         12.77000       14.53300       17.87800
C         11.60800       15.23100       18.53100
O         11.80600       16.02300       19.40400
N         10.39900       14.93900       18.13900
C          9.28600       15.66000       18.70700
C          8.97500       15.32000       20.14100
O          8.93000       14.18400       20.50000
C          8.04800       15.30700       17.91400
C          8.09200       15.64200       16.44300
C          6.67300       15.45800       15.93700
C          8.61100       17.07100       16.22400
N          8.69000       16.29600       20.96100
C          8.17500       15.95700       22.27000
C          6.67400       15.98300       22.12500
O          6.16300       16.85900       21.43000
C          8.51700       17.00300       23.32900
C          9.68600       17.90800       23.06600
C          9.51600       19.16900       23.92700
C         10.27300       20.33900       23.36900
N         11.76400       20.08000       23.41600
N          5.96800       15.05100       22.75800
C          4.51200       15.01800       22.75200
C          4.01300       15.13700       24.16000
O          4.75500       14.99700       25.11600
C          3.97700       13.69000       22.23600
C          4.46700       13.32100       20.88200
C          5.82400       13.16300       20.65200
C          3.58400       13.12300       19.85400
C          6.28900       12.82600       19.42800
C          4.04000       12.78900       18.60300
C          5.41300       12.64300       18.39400
N          2.71500       15.32300       24.29500
C          2.11300       15.45400       25.59900
C          0.76000       14.82600       25.52200
O          0.02900       14.99300       24.55000
C          1.95400       16.91300       25.94900
C          3.32200       17.53900       26.21100
C          1.08900       17.08000       27.17600
C          3.22500       18.93800       26.75300
N          0.41900       14.10400       26.56200
C         -0.82700       13.40800       26.60800
C         -1.83100       14.23300       27.40600
O         -1.46500       14.86000       28.40100
C         -0.56500       12.05600       27.29500
C          0.63200       11.38000       26.63100
C         -1.78800       11.21000       27.24900
C          0.79500        9.93800       26.97100
N         -3.09300       14.23600       26.99600
C         -4.12400       14.91700       27.77800
C         -5.36200       14.07200       27.78600
O         -5.58200       13.30800       26.88800
C         -4.45200       16.28100       27.19500
C         -3.48800       17.37500       27.61100
C         -3.80500       18.65200       26.84800
C         -2.56400       19.49200       26.61500
N         -2.53000       20.71000       27.47800
N         -6.19300       14.19500       28.78800
C         -7.37000       13.36100       28.79300
C         -8.30200       13.94500       27.77700
O         -8.31300       15.16800       27.61000
C         -8.04600       13.39200       30.14900
C         -7.18000       12.92100       31.28400
C         -7.98900       12.51200       32.52100
N         -7.29000       12.71700       33.78500
C         -6.78300       13.88100       34.17700
N         -6.86800       14.94800       33.38200
N         -6.19300       13.98400       35.37000
N         -9.07200       13.09700       27.09700
C        -10.09500       13.60600       26.18000
C        -10.98000       14.53600       27.01900
O        -10.77100       15.74100       26.99700
C        -10.90400       12.49500       25.48800
C        -11.54100       12.95500       24.17800
C        -10.75000       13.25700       23.06900
C        -12.93000       13.09600       24.05100
C        -11.31300       13.68200       21.87800
C        -13.50600       13.51600       22.85300
C        -12.68700       13.81100       21.77400
O        -13.22300       14.24100       20.58500
N        -11.95700       14.03200       27.76500
C        -12.66200       14.95000       28.64500
C        -11.97500       14.89100       29.99200
O        -11.90000       13.82800       30.60400
C        -14.13600       14.68400       28.72000
O        -14.53500       13.97100       27.54500
C        -14.88300       16.04900       28.64200
N        -11.53300       16.05300       30.47000
C        -10.46100       16.12300       31.46300
C        -10.64800       16.55600       32.92400
O        -10.20700       15.90500       33.88700
C         -9.61600       17.26400       30.86200
C        -10.66500       18.16200       30.10100
C        -11.97600       17.40400       30.09200
N        -11.32900       17.67100       33.06900
C        -11.03400       18.59200       34.16200
C        -10.81500       18.30100       35.65700
O         -9.73700       18.59700       36.18600
C        -11.95800       19.80200       34.04100
C        -11.17400       21.09900       33.94900
O        -10.26800       21.35500       34.76200
N        -11.48900       21.91000       32.94000
N        -11.79900       17.72900       36.33600
C        -11.80800       17.80100       37.80400
C        -11.13700       16.71900       38.67200
O        -10.80400       16.98600       39.82600
C        -13.26000       18.02200       38.26700
C        -13.45700       19.35800       38.99300
O        -14.51100       19.60900       39.57900
N        -12.43400       20.20600       38.97000
N        -10.91300       15.52600       38.12500
C        -10.40900       14.38900       38.91200
C         -8.86700       14.38800       39.12300
O         -8.16100       15.15100       38.46200
C        -10.88300       13.10200       38.25600
C         -9.81900       12.41100       37.43700
C        -10.08500       10.92900       37.32900
O        -11.10900       10.55700       36.71000
O         -9.28200       10.14600       37.89100
N         -8.35300       13.50400       39.99500
C         -6.93500       13.55800       40.47100
C         -5.88700       12.54700       40.05500
O         -4.87500       12.39600       40.73600
C         -6.89000       13.42400       42.02300
C         -7.08000       11.94200       42.45300
C         -7.84600       14.39200       42.67400
C         -8.47900       11.37900       42.29600
N         -6.06400       11.86400       38.96500
C         -5.12800       10.82600       38.66900
C         -4.25600       11.40000       37.54600
O         -4.77000       11.64300       36.44400
C         -5.97400        9.62100       38.25000
C         -5.28700        8.29400       38.44700
O         -4.05400        8.22100       38.25600
O         -5.92500        7.25800       38.77000
N         -2.97200       11.68400       37.79700
C         -2.13400       12.18500       36.69700
C         -1.58400       11.01300       35.91500
O         -0.70600       11.16400       35.05900
C         -0.99000       13.05300       37.18300
O         -1.34100       14.41800       37.04900
N         -2.12300        9.83500       36.20300
C         -1.59500        8.59800       35.65100
C         -2.44700        8.06300       34.54200
O         -3.64100        7.87800       34.69400
C         -1.51000        7.55000       36.74900
C         -0.70600        7.98200       37.93500
C         -1.21000        8.90200       38.84900
C          0.54900        7.46100       38.15800
C         -0.46700        9.28200       39.95900
C          1.28400        7.83700       39.25700
C          0.77900        8.75000       40.15600
N         -1.81300        7.76700       33.42800
C         -2.54500        7.28300       32.28600
C         -2.86900        5.85300       32.54400
O         -1.99500        5.07600       32.74700
C         -1.72400        7.40900       30.99200
C         -2.48400        6.83600       29.82800
C         -1.36300        8.87700       30.72500
N         -4.14800        5.52900       32.55800
C         -4.60000        4.15400       32.68700
C         -4.78400        3.51800       31.30400
O         -5.29200        4.17400       30.39700
C         -5.93700        4.13700       33.41200
C         -5.98800        5.02800       34.66500
C         -7.00700        4.53000       35.69500
C         -8.33300        4.06600       35.02600
N         -9.48900        4.06400       35.97600
N         -4.37300        2.26300       31.11700
C         -4.61100        1.61200       29.82100
C         -6.09600        1.51900       29.64500
O         -6.77800        0.98900       30.53100
C         -4.07000        0.18700       29.71900
O         -4.53200       -0.39400       28.49200
N         -6.59000        2.01900       28.52000
C         -8.01000        2.01700       28.25500
C         -8.59900        3.40300       28.40500
O         -9.81400        3.60800       28.24400
N         -7.73400        4.35400       28.74200
C         -8.10800        5.75900       28.84300
C         -8.16900        6.38500       27.47800
O         -7.39600        6.02600       26.59600
C         -7.04700        6.56000       29.61400
C         -7.24500        6.52500       31.11200
O         -7.96800        5.62300       31.58700
O         -6.68100        7.34200       31.88800
N         -9.04100        7.37500       27.31400
C         -9.10600        8.07600       26.04700
C         -8.39200        9.42100       26.17700
O         -8.68300       10.20800       27.08800
C        -10.55500        8.23200       25.57600
C        -11.20300        6.93700       25.22400
C        -10.90500        6.31100       24.04300
C        -12.11000        6.34300       26.08500
C        -11.48900        5.12800       23.71900
C        -12.70900        5.15300       25.75900
C        -12.39600        4.54400       24.57800
N         -7.45800        9.65900       25.25800
C         -6.64000       10.84900       25.27100
C         -6.62100       11.64000       23.99800
O         -7.12600       11.21700       22.96000
C         -5.20400       10.44800       25.48300
C         -4.63500        9.88100       24.17900
C         -5.13100        9.43700       26.58800
C         -3.26300        9.42300       24.26000
N         -5.96500       12.79200       24.12500
C         -5.64600       13.69200       23.02900
C         -4.12200       13.71900       23.05900
O         -3.51500       13.89900       24.13100
C         -6.19000       15.11200       23.26800
C         -7.73600       15.25000       23.44300
C         -8.17900       16.73600       23.30000
C         -9.60300       17.06600       23.82800
N        -10.73600       16.88700       22.82700
N         -3.50100       13.47700       21.91700
C         -2.06700       13.50800       21.83100
C         -1.63500       14.82400       21.19800
O         -2.22700       15.22800       20.21900
C         -1.59200       12.35100       20.98300
C         -0.08200       12.21100       21.04400
C          0.29100       11.70600       22.43000
C          0.44100       11.31100       20.00000
N         -0.62800       15.50700       21.75100
C         -0.17500       16.78500       21.17500
C          1.32500       16.81400       20.92200
O          2.07600       16.05100       21.50600
C         -0.47200       17.96700       22.09900
C         -1.92100       18.43000       22.21900
C         -2.79200       17.80900       23.08500
C         -2.39200       19.52700       21.50400
C         -4.08400       18.22800       23.21900
C         -3.70900       19.95700       21.63800
C         -4.54300       19.29600       22.51400
O         -5.86300       19.69200       22.68400
N          1.75000       17.71000       20.04500
C          3.16400       17.92800       19.81000
C          3.52500       19.30500       20.38800
O          2.80000       20.27900       20.16800
C          3.49400       17.90100       18.33100
C          4.95800       18.36500       18.10400
C          3.22100       16.49200       17.75600
N          4.62600       19.35600       21.14800
C          5.10400       20.58200       21.78600
C          6.31900       21.06300       21.01000
O          7.35500       20.38400       20.97300
C          5.45400       20.32700       23.24600
O          5.42700       21.53500       24.00300
N          6.16000       22.24700       20.41300
C          7.07600       22.82900       19.43000
C          6.98800       24.36400       19.51900
O          6.14800       24.98000       18.87900
C          6.59300       22.37300       18.05400
C          7.61400       22.36000       16.96000
C          7.85900       23.49500       16.20100
C          8.30500       21.19600       16.65200
C          8.79200       23.48700       15.17800
C          9.24300       21.17000       15.62800
C          9.48100       22.32100       14.89100
O         10.39700       22.29700       13.86500
N          7.83300       24.97800       20.33200
C          7.81000       26.43000       20.50900
C          6.68300       26.94400       21.40500
O          6.08800       27.98700       21.13900
C          7.77400       27.12100       19.15600
C          8.94400       26.72900       18.29800
O          9.98900       26.29900       18.81200
N          8.78500       26.85900       16.98100
N          6.39500       26.18700       22.46000
C          5.43100       26.58200       23.49000
C          3.99300       26.23600       23.12600
O          3.10200       26.29800       23.99500
C          5.53300       28.08200       23.76700
C          5.54600       28.41000       25.25100
O          4.58100       28.96900       25.79100
N          6.66100       28.10100       25.91300
N          3.77500       25.88200       21.85600
C          2.44600       25.55500       21.34700
C          2.09900       24.07900       21.46600
O          2.96900       23.22300       21.49100
C          2.34700       25.89800       19.86100
C          3.07800       27.16400       19.49500
O          2.49800       28.25400       19.51900
N          4.35200       27.03000       19.12300
N          0.80600       23.79600       21.49800
C          0.30500       22.43400       21.50100
C         -0.47600       22.18800       20.22100
O         -1.57900       22.71200       20.04400
C         -0.65700       22.22400       22.66100
C         -0.02800       22.03200       24.01800
C         -1.08400       22.01300       25.11600
O         -2.31000       22.07800       24.78200
O         -0.68700       21.94200       26.30700
N          0.09200       21.37500       19.34200
C         -0.55500       21.00800       18.08900
C         -1.03800       19.60000       18.20700
O         -0.25500       18.67900       18.31700
C          0.44300       21.13100       16.97100
C          1.06800       22.48800       16.90400
N          2.43000       22.68900       16.98200
C          0.51100       23.71600       16.81000
C          2.68600       23.98300       16.91200
N          1.53900       24.63000       16.81500
N         -2.33800       19.42900       18.24300
C         -2.89300       18.10800       18.35800
C         -2.56300       17.22700       17.14100
O         -2.43000       17.69600       16.01400
C         -4.38200       18.23300       18.52500
C         -4.95600       16.93500       19.08200
C         -4.99600       18.56300       17.21600
C         -6.24600       17.15500       19.84600
N         -2.43000       15.93600       17.38800
C         -2.14300       14.97100       16.34900
C         -3.42100       14.31100       15.93000
O         -4.19100       13.89900       16.78600
C         -1.29400       13.85200       16.87700
C         -1.08400       12.79600       15.76000
C          0.02600       14.39000       17.42800
N         -3.64800       14.17500       14.62300
C         -4.84200       13.49700       14.16500
C         -4.76100       13.12100       12.72000
O         -3.71700       13.26600       12.08800
N         -5.89000       12.58100       12.25200
C         -6.17600       12.27500       10.85100
C         -7.45400       13.00100       10.47000
O         -8.50200       12.79800       11.07900
C         -6.40000       10.78900       10.63300
C         -6.75700       10.42900        9.18700
C         -5.83300       10.56800        8.17000
C         -8.01700        9.94900        8.86000
C         -6.15300       10.22800        6.86300
C         -8.35600        9.62600        7.54800
C         -7.43000        9.75900        6.54600
O         -7.76600        9.43300        5.22600
N         -7.35400       13.85700        9.47000
C         -8.51400       14.57800        8.90700
C         -9.37000       13.72600        7.98200
O         -8.77700       12.95200        7.25600
C         -7.87100       15.68700        8.04800
C         -6.38500       15.40000        8.00700
C         -6.08600       14.19300        8.80400
N        -10.69900       13.86100        7.98100
C        -11.52800       13.13800        6.98900
C        -10.88800       13.31500        5.61000
O        -10.55500       14.43100        5.22100
C        -12.96000       13.68300        6.94900
C        -14.03600       12.75000        6.38500
C        -15.35000       13.51500        6.18300
C        -16.62600       12.61500        6.10100
N        -17.83900       13.26700        6.76500
N        -10.68500       12.19900        4.91700
C        -10.10000       12.13800        3.56700
C         -8.62700       12.56600        3.40900
O         -8.19600       12.83900        2.27700
C        -10.94700       12.92800        2.57900
C        -12.35500       12.34500        2.38400
O        -12.60100       11.14100        2.57200
O        -13.29800       13.06000        2.03700
N         -7.84300       12.62300        4.49100
C         -6.43700       13.00200        4.33000
C         -5.76500       11.86000        3.60600
O         -6.26100       10.76800        3.81300
N         -4.69100       12.02300        2.82000
C         -4.18500       10.79600        2.19300
C         -3.73800        9.82500        3.23600
O         -3.44800       10.15500        4.39500
C         -3.13900       10.88700        1.07700
C         -1.99200       11.59900        1.47700
O         -2.10600       12.40300        2.38200
N         -0.84300       11.34700        0.85100
N         -3.71100        8.60400        2.74100
C         -3.52900        7.42900        3.49500
C         -3.04100        6.47000        2.46300
O         -3.61900        6.32900        1.39400
C         -4.87800        6.97700        4.03700
N         -1.95900        5.80700        2.74400
C         -1.50100        4.82800        1.82200
C         -2.61800        3.87900        1.68800
O         -3.25200        3.49500        2.67200
C         -0.25400        4.14300        2.34500
C          0.84500        5.10700        2.65200
C          1.13700        5.44100        3.94300
C          1.55000        5.72100        1.62800
C          2.14300        6.31700        4.23100
C          2.54500        6.60800        1.92400
C          2.83000        6.90200        3.23500
N         -2.93100        3.60900        0.43200
C         -3.83100        2.55100        0.08400
C         -5.20200        2.61300        0.65100
O         -5.86600        1.59300        0.73500
C         -3.19300        1.27800        0.58100
C         -2.57000        0.50500       -0.51800
O         -3.26000        0.01100       -1.37300
N         -1.25400        0.41000       -0.51700
N         -5.62000        3.79100        1.07300
C         -6.96100        3.96900        1.61700
C         -7.13800        3.48300        3.03900
O         -8.23200        3.60400        3.58100
C         -7.95800        3.23600        0.74100
C         -9.11000        4.12000        0.31500
O        -10.23900        3.64900        0.08700
N         -8.83200        5.41700        0.18300
N         -6.06000        3.00500        3.67400
C         -6.19500        2.29600        4.95100
C         -5.22200        2.67800        6.03500
O         -5.57000        2.61100        7.21600
C         -6.06700        0.78800        4.71300
C         -7.36800        0.14900        4.26800
C         -7.10100       -1.00400        3.29100
C         -8.17200       -0.33000        5.49200
N         -3.99000        2.99900        5.63000
C         -2.96100        3.46800        6.54400
C         -2.96300        5.01300        6.51100
O         -2.30700        5.67800        5.68500
C         -1.62400        2.83800        6.18500
C         -1.70200        1.32000        6.20300
O         -2.74800        0.80300        6.69800
O         -0.80100        0.57500        5.74700
N         -3.70400        5.55600        7.46800
C         -3.99500        6.96500        7.53300
C         -2.86400        7.81300        8.08700
O         -2.45900        7.67800        9.21700
C         -5.27700        7.10900        8.32500
C         -6.28800        6.06700        7.90100
C         -7.59400        6.09700        8.61800
N         -8.56600        5.12500        8.09100
C         -8.55500        3.80400        8.27300
N         -7.60800        3.20100        8.98000
N         -9.51600        3.06900        7.73000
N         -2.35000        8.69700        7.25200
C         -1.19900        9.48400        7.58900
C         -1.52600       10.49700        8.63600
O         -2.42100       11.28700        8.46400
C         -0.64700       10.13400        6.34100
C         -0.10600        9.02300        5.43300
C          0.40300       11.15200        6.72100
C          0.51900        9.49100        4.14000
N         -0.82300       10.42600        9.76600
C         -1.14300       11.27800       10.87300
C         -0.73700       12.68800       10.57600
O          0.14900       12.90800        9.78500
C         -0.43300       10.77800       12.08900
C         -0.98400        9.49400       12.67000
C         -0.09200        9.10200       13.82800
C         -2.43200        9.57200       13.07200
N         -1.36600       13.65800       11.20500
C         -1.06100       15.03900       10.88100
C         -0.97700       15.85800       12.13000
O         -1.82600       15.73200       13.02600
C         -2.14900       15.63800        9.99700
C         -2.38900       14.89700        8.69700
C         -1.23600       14.98100        7.70900
N         -1.30000       16.07900        6.75200
C         -2.17900       16.17800        5.75000
N         -3.13400       15.27600        5.57200
N         -2.10800       17.19300        4.91900
N          0.02000       16.74100       12.14700
C          0.32100       17.58100       13.29500
C         -0.09200       18.99100       13.05300
O          0.50800       19.67500       12.24200
C          1.81700       17.59600       13.55400
C          2.14500       18.52200       14.69200
C          2.28600       16.23200       13.85500
N         -1.12700       19.43200       13.75800
C         -1.62600       20.79400       13.62100
C         -2.63200       21.08700       12.51300
O         -2.95700       22.23700       12.29300
N         -3.12000       20.08000       11.80900
C         -4.11600       20.29100       10.76300
C         -5.23400       21.23100       11.17900
O         -5.83300       21.06300       12.22800
C         -4.75200       18.96600       10.38400
C         -5.34600       18.93000        9.00000
C         -6.71600       19.00700        8.81000
C         -4.52500       18.82500        7.87300
C         -7.25200       18.98000        7.51900
C         -5.05100       18.78300        6.59800
C         -6.41300       18.87000        6.43200
O         -6.93900       18.84500        5.17900
N         -5.56000       22.18400       10.32000
C         -6.56800       23.17000       10.66000
C         -7.55400       23.51700        9.55100
O         -8.37000       24.41700        9.71900
C         -5.85400       24.45600       11.08600
C         -5.15900       25.12400        9.92900
O         -5.71900       25.22400        8.83000
N         -3.93500       25.57800       10.15300
N         -7.47200       22.84300        8.40700
C         -8.37500       23.12900        7.29400
C         -9.81000       23.33600        7.78100
O        -10.45200       22.42100        8.29700
C         -8.32800       22.02700        6.28500
N        -10.32600       24.54500        7.57100
C        -11.66800       24.90900        8.01400
C        -12.70200       24.01300        7.38100
O        -12.59500       23.74000        6.18600
C        -11.82400       26.31800        7.44800
C        -10.89500       26.30300        6.28700
C         -9.68500       25.67100        6.86800
N        -13.67800       23.56400        8.17000
C        -14.73400       22.71500        7.65900
C        -14.42200       21.22600        7.66400
O        -15.32900       20.40800        7.80900
N        -13.15200       20.87600        7.48700
C        -12.71600       19.48200        7.47800
C        -12.54000       18.87000        8.88000
O        -11.73600       19.31900        9.69700
C        -11.42900       19.37000        6.67600
C        -11.68200       19.93600        5.27600
C        -11.01200       17.94400        6.59500
C        -10.47900       19.94800        4.37100
N        -13.32300       17.84700        9.16900
C        -13.22700       17.17600       10.45000
C        -11.83800       16.62000       10.69600
O        -11.19000       16.08700        9.79500
C        -14.22200       16.02900       10.30100
C        -15.15500       16.48200        9.34900
C        -14.37900       17.25400        8.34000
N        -11.37700       16.75800       11.92700
C        -10.10200       16.20000       12.28000
C        -10.26000       15.30800       13.47200
O        -10.41200       15.78500       14.60600
C         -9.07100       17.24500       12.62200
C         -7.78200       16.41800       12.84500
C         -6.81700       16.60100       11.70700
C         -7.09500       16.73300       14.13400
N        -10.17300       14.01200       13.20400
C        -10.31000       13.00500       14.23100
C         -9.06900       12.93200       15.13400
O         -7.96600       12.66900       14.66500
C        -10.57300       11.68300       13.53100
C        -11.79800       11.73400       12.61900
C        -13.04000       12.12500       13.10200
C        -11.71200       11.40600       11.27700
C        -14.16100       12.17800       12.26800
C        -12.81900       11.44600       10.45900
C        -14.03900       11.83100       10.96000
O        -15.13000       11.85600       10.12300
N         -9.24400       13.16400       16.43200
C         -8.11300       13.07500       17.37600
C         -8.33800       12.29200       18.69400
O         -7.45100       12.26100       19.55200
C         -7.49700       14.45800       17.65000
C         -8.44000       15.56900       18.05800
C         -9.43400       15.16800       19.10800
C        -10.43400       16.31300       19.40400
N        -11.87800       15.86800       19.44000
N         -9.48700       11.64100       18.85900
C         -9.71300       10.78800       20.03100
C         -8.83000        9.53300       19.94300
O         -8.91800        8.76600       18.98900
C        -11.18700       10.37100       20.11300
C        -11.53500        9.30900       21.18700
C        -13.07400        9.17500       21.33100
C        -13.50800        7.79400       21.87800
N        -14.98000        7.62700       22.12400
N         -7.97600        9.33900       20.94300
C         -7.08600        8.19100       20.98200
C         -7.34000        7.41800       22.27700
O         -7.82500        7.98200       23.26100
C         -5.61500        8.64200       20.94000
C         -5.16300        9.33600       19.62200
S         -3.36100        9.32000       19.41700
C         -3.13300       10.21200       17.87500
N         -7.07800        6.11700       22.24300
C         -7.11900        5.29400       23.43500
C         -5.68900        4.76200       23.57600
O         -5.13900        4.23700       22.63000
C         -8.13100        4.16800       23.26400
C         -8.22500        3.18200       24.40500
C         -9.13300        1.99600       24.10200
O         -9.54300        1.82100       22.92500
O         -9.44100        1.22900       25.05000
N         -5.05800        4.93000       24.72100
C         -3.70600        4.39300       24.88600
C         -3.88400        3.07000       25.58700
O         -4.57800        2.97600       26.58400
C         -2.85400        5.31600       25.69200
N         -3.24900        2.03500       25.07000
C         -3.57800        0.71100       25.52900
C         -2.33700       -0.09200       25.61300
O         -1.34200        0.28300       25.03400
C         -4.48900        0.02600       24.48700
C         -5.59100       -0.74700       25.15200
C         -5.08700        1.05700       23.54800
N         -2.41300       -1.20700       26.33100
C         -1.33300       -2.14500       26.39200
C         -1.87700       -3.40200       25.76100
O         -2.53800       -4.16300       26.42600
C         -0.93300       -2.37600       27.83700
C          0.23300       -3.35300       28.02000
C          1.52100       -2.71800       27.57400
C          2.72800       -3.49900       27.99500
N          3.94200       -2.76400       27.44700
N         -1.63700       -3.62700       24.47300
C         -2.23500       -4.79500       23.82100
C         -1.29600       -5.97800       23.72700
O         -1.68000       -7.03200       23.27000
C         -2.73900       -4.48200       22.40800
C         -4.00300       -3.65600       22.14200
C         -4.99500       -3.60800       23.32800
C         -3.58100       -2.29000       21.76600
N         -0.06000       -5.83100       24.15500
C          0.87000       -6.94200       24.03200
C          2.17800       -6.59800       24.68400
O          2.34900       -5.46700       25.12100
C          1.12600       -7.13800       22.54600
C          1.46100       -5.81600       21.89000
C          1.92800       -5.92700       20.48500
N          3.38000       -5.87800       20.32500
C          4.07100       -6.85200       19.77000
N          3.43900       -7.95200       19.38200
N          5.38000       -6.74200       19.57400
N          3.07900       -7.58700       24.73800
C          4.45900       -7.42000       25.18100
C          4.56900       -6.79600       26.55400
O          5.12100       -5.73700       26.72600
C          5.17800       -6.54500       24.16900
C          6.65500       -6.77200       24.14900
O          7.16900       -7.44700       25.06400
O          7.38700       -6.30600       23.24900
N          4.07000       -7.49800       27.54600
C          3.97800       -6.97600       28.90200
C          5.31500       -6.62300       29.55900
O          5.40800       -5.69100       30.39800
C          3.26500       -8.02800       29.74400
C          2.42600       -7.57100       30.92200
C          1.26600       -6.75500       30.50500
C          1.93100       -8.79500       31.62800
N          6.34700       -7.38200       29.21800
C          7.65500       -7.15300       29.81900
C          8.24300       -5.87900       29.28500
O          8.94900       -5.21200       29.97800
C          8.59600       -8.31300       29.54900
C          8.16700       -9.58200       30.23400
C          9.00600      -10.77900       29.79000
C          8.37000      -12.10100       30.19200
N          9.27700      -13.22400       29.88700
N          7.91200       -5.51700       28.05300
C          8.46500       -4.30600       27.47800
C          7.67400       -3.09000       27.94900
O          6.45100       -3.09400       27.86700
C          8.40800       -4.39700       25.96200
O          9.15500       -5.53200       25.50100
C          9.10400       -3.22000       25.33000
N          8.34800       -2.04100       28.42100
C          7.63300       -0.82100       28.82200
C          7.30900        0.02400       27.59800
O          8.00300        0.99500       27.28800
C          8.43000        0.03400       29.83100
C          9.05400       -0.73100       31.00000
C          8.33400       -1.64800       31.74500
C         10.36900       -0.51000       31.35500
C          8.92900       -2.31800       32.81400
C         10.94700       -1.17600       32.38600
C         10.22700       -2.07500       33.10600
O         10.83300       -2.72700       34.13900
N          6.24600       -0.36600       26.90200
C          5.84700        0.22900       25.63800
C          4.35300        0.43200       25.63000
O          3.63300       -0.19500       26.38600
C          6.22100       -0.68000       24.48300
O          5.46300       -1.86900       24.51400
N          3.89000        1.32100       24.75900
C          2.46100        1.64200       24.66700
C          2.01000        1.52100       23.24800
O          2.83000        1.59700       22.33300
C          2.24400        3.07200       25.18900
C          0.94900        3.67400       24.75000
C          2.38800        3.08900       26.77100
N          0.71700        1.24400       23.07300
C          0.08100        1.28600       21.77800
C         -0.93200        2.36500       21.86400
O         -1.46900        2.59600       22.94200
C         -0.67300        0.01000       21.47900
C          0.19500       -1.14500       21.06000
C          0.82200       -1.86500       22.20600
O          0.12700       -2.32700       23.12500
N          2.14100       -1.99800       22.15500
N         -1.21200        2.99800       20.72100
C         -2.19600        4.06300       20.61900
C         -3.20100        3.79200       19.50700
O         -2.78900        3.53300       18.39300
C         -1.45100        5.35300       20.29000
C         -0.52700        5.90900       21.35600
C          0.59700        6.74500       20.72100
C         -1.36900        6.77800       22.20800
N         -4.50400        3.85000       19.82000
C         -5.60700        3.56900       18.88100
C         -6.37800        4.84100       18.53700
O         -6.83900        5.53000       19.42900
C         -6.59600        2.59700       19.54400
C         -7.57300        1.81800       18.61100
C         -8.96000        1.61000       19.26400
C         -9.61300        0.25100       19.02000
N        -10.98000        0.12300       19.62500
N         -6.56700        5.11200       17.24800
C         -7.28500        6.29400       16.78100
C         -8.73000        5.92000       16.45200
O         -8.99900        4.84000       15.94200
C         -6.58700        6.83400       15.53200
C         -6.90800        8.19800       14.97200
C         -6.63500        9.31700       15.92500
C         -6.06600        8.39400       13.71100
N         -9.65800        6.80900       16.76200
C        -11.05500        6.58800       16.43800
C        -11.53700        7.75900       15.61500
O        -10.99600        8.85700       15.73000
C        -11.92400        6.57500       17.68900
C        -11.70100        5.43600       18.62200
C        -10.57000        5.38200       19.43800
C        -12.63100        4.41400       18.71900
C        -10.37200        4.31900       20.30900
C        -12.44200        3.36100       19.59500
C        -11.31600        3.31800       20.38200
O        -11.14300        2.26500       21.24600
N        -12.57000        7.55100       14.82100
C        -13.16100        8.66100       14.11500
C        -14.31500        9.09200       14.99600
O        -14.55000        8.49500       16.04400
C        -13.61600        8.27400       12.71900
C        -14.77800        7.35500       12.73400
O        -15.50300        7.36700       13.74600
O        -15.05300        6.60000       11.77200
N        -15.05400       10.10900       14.57000
C        -16.09100       10.68700       15.41600
C        -17.38000        9.88300       15.49300
O        -18.43200       10.42900       15.79400
C        -16.39600       12.11500       14.97700
C        -17.14200       12.17500       13.68000
O        -17.40500       11.09600       13.09400
O        -17.50500       13.26600       13.17300
N        -17.31000        8.59300       15.20700
C        -18.47000        7.73800       15.39100
C        -18.11800        6.50500       16.21300
O        -18.94800        5.63200       16.39300
C        -19.06300        7.32100       14.04600
C        -20.26200        6.38600       14.17900
C        -21.53200        7.15000       14.50100
C        -22.73900        6.22400       14.58000
N        -24.00700        7.00400       14.80900
N        -16.88700        6.44700       16.70700
C        -16.39900        5.32600       17.49900
C        -15.96000        4.13500       16.63700
O        -15.86300        2.99500       17.10000
C        -17.37200        4.95000       18.61900
C        -18.38900        3.91300       18.20700
O        -19.59300        4.20600       18.15100
N        -17.92900        2.67400       17.96700
N        -15.65900        4.42700       15.38100
C        -15.04700        3.44900       14.49400
C        -13.51500        3.58100       14.63300
O        -12.97300        4.67300       14.91100
C        -15.48500        3.67600       13.06900
N        -12.81600        2.46900       14.47300
C        -11.38600        2.46700       14.69300
C        -10.61900        2.80000       13.45600
O        -10.82500        2.20100       12.39800
C        -10.91300        1.10700       15.13800
O         -9.51700        1.02700       14.89600
N         -9.69500        3.72800       13.60500
C         -8.86900        4.13500       12.50100
C         -7.52800        3.44000       12.57400
O         -6.67800        3.67300       11.74000
C         -8.70600        5.66000       12.48600
C        -10.00200        6.45800       12.28600
C         -9.73600        7.94800       12.50200
C        -10.57900        6.24700       10.89400
N         -7.32600        2.59500       13.56800
C         -6.09300        1.84900       13.65000
C         -5.08800        2.20000       14.73100
O         -5.14100        3.25600       15.35100
N         -4.17000        1.28100       14.98400
C         -3.09900        1.55500       15.90700
C         -2.12200        2.49000       15.22700
O         -1.90800        2.40500       14.02600
C         -2.37300        0.26200       16.28000
C         -3.25600       -0.79000       16.96300
C         -2.48500       -2.02800       17.39800
C         -3.98400       -0.16000       18.13900
N         -1.53200        3.37800       15.99500
C         -0.50300        4.26800       15.48200
C          0.82200        3.50600       15.19300
O          1.25600        2.72200       16.00000
C         -0.25400        5.40200       16.47900
C          0.78600        6.39100       15.95700
C         -1.50800        6.14700       16.69400
N          1.42700        3.73000       14.02000
C          2.69700        3.07900       13.66100
C          3.31900        3.75600       12.45400
O          3.03800        4.91500       12.22600
N          4.15900        3.07200       11.68300
C          4.72300        3.67400       10.47600
C          4.47400        2.83100        9.23200
O          4.12800        1.66300        9.30500
C          6.25400        3.90200       10.60500
O          6.88800        2.72000       11.11200
C          6.54400        4.96500       11.61600
N          4.66500        3.45200        8.08200
C          4.54200        2.77000        6.81800
C          5.52400        3.40000        5.85900
O          5.50600        4.60700        5.64700
C          3.12900        2.91500        6.31500
C          2.77600        1.94700        5.24200
N          2.06200        0.80200        5.49000
C          3.00900        1.96500        3.91600
C          1.88100        0.14700        4.36000
N          2.45300        0.83100        3.38800
N          6.41400        2.60700        5.28600
C          7.39000        3.19900        4.40600
C          6.61400        3.69100        3.22200
O          5.73400        3.00200        2.74500
C          8.43000        2.18400        3.98300
C          9.56400        2.81000        3.18300
O          9.61300        2.67200        1.96800
N         10.47900        3.50300        3.86700
N          6.91700        4.88500        2.74100
C          6.22200        5.44100        1.59600
C          6.89300        6.72400        1.15600
O          7.89500        7.12900        1.69900
N          6.35800        7.36500        0.15000
C          6.94900        8.58600       -0.33600
C          5.84700        9.62800       -0.42200
O          4.73300        9.29200       -0.78200
C          7.47500        8.29900       -1.71300
C          8.90600        8.64100       -1.99100
C          8.75800        9.06000       -2.04700
C          9.43700        7.76900       -3.12400
C          8.58700       10.04500       -3.19100
O          9.57900        6.55600       -2.96100
O          8.24400        9.65200       -4.30100
N          9.68800        8.37300       -4.27500
N          8.83700       11.32200       -2.92800
N          6.12600       10.87700       -0.07700
C          5.10800       11.92000       -0.21300
C          5.59500       13.13500       -1.00900
O          6.38500       13.93300       -0.51600
C          4.58500       12.31300        1.16000
C          3.90000       11.11500        1.77800
C          3.56100       13.40400        1.07200
C          3.07500       11.48000        2.95800
N          5.12400       13.24900       -2.25400
C          5.43600       14.37700       -3.12500
C          6.88300       14.30100       -3.53700
O          7.29600       13.27600       -4.09500
N          7.68000       15.33600       -3.25600
C          9.10200       15.21000       -3.59400
C         10.06100       15.06000       -2.44200
O         11.27900       15.16700       -2.61900
C          9.63800       16.28000       -4.52800
C         10.95600       15.83600       -5.16400
O         11.04000       14.72200       -5.69200
N         11.99700       16.67400       -5.07300
N          9.52800       14.83000       -1.25900
C         10.37400       14.47000       -0.15700
C         10.90300       13.07400       -0.48600
O         10.34300       12.39300       -1.32600
C          9.55900       14.47600        1.12300
C          8.91000       15.82700        1.39500
O          9.35600       16.85300        0.82500
O          7.95500       15.95000        2.18100
N         12.00300       12.65200        0.12800
C         12.53600       11.29700       -0.10500
C         11.78200       10.15500        0.60600
O         10.88900       10.40200        1.41200
C         13.94700       11.39400        0.45700
C         13.80000       12.38000        1.55500
C         12.88000       13.44400        1.00400
N         12.15000        8.91500        0.27200
C         11.56000        7.72500        0.88100
C         11.60900        7.86500        2.38300
O         12.66700        8.11700        2.94800
C         12.33000        6.45800        0.48700
C         11.56500        5.19900        0.82100
O         12.02500        4.35600        1.59900
N         10.37600        5.06600        0.23800
N         10.47300        7.67700        3.03400
C         10.42400        7.79200        4.46700
C          9.44800        6.82900        5.13800
O          8.54800        6.28600        4.52700
C         10.02700        9.22200        4.84500
C         11.17200       10.20600        4.94100
C         10.71500       11.64400        4.71300
N         11.75300       12.66400        4.85100
C         11.49900       13.96900        4.83700
N         10.25200       14.40900        4.70400
N         12.48400       14.84000        4.93700
N          9.64300        6.65900        6.43700
C          8.75700        5.88700        7.26900
C          7.85400        6.90300        7.91200
O          8.23900        7.58100        8.87300
C          9.55200        5.13100        8.32800
C         10.29600        3.97400        7.75100
O          9.68900        3.27300        6.90200
O         11.48200        3.68500        8.05300
N          6.64900        7.00300        7.38700
C          5.72300        8.04800        7.79800
C          4.81900        7.52700        8.88700
O          4.40300        6.40100        8.81400
C          4.92400        8.46000        6.56900
C          5.78500        9.33300        5.66100
C          3.68700        9.17500        6.94800
C          5.82400        8.84200        4.21900
N          4.50800        8.32600        9.89500
C          3.71100        7.81100       10.99400
C          2.32100        7.67000       10.46900
O          1.85900        8.55100        9.75200
C          3.68300        8.74600       12.20700
C          4.81700        9.05700       13.18600
C          4.28000        8.94600       14.62900
C          6.01400        8.23700       13.02900
N          1.64700        6.58200       10.79800
C          0.25800        6.38000       10.34900
C         -0.62200        5.83400       11.44400
O         -0.15400        5.46100       12.50600
C          0.18800        5.38500        9.17400
C          0.90600        4.05500        9.49500
C          0.84300        5.97700        7.97400
C          0.11300        3.00100       10.31500
N         -1.91300        5.76900       11.15700
C         -2.83100        4.99900       11.97600
C         -3.42200        3.90000       11.08600
O         -3.86800        4.17400       10.00600
C         -3.87200        5.85000       12.55200
N         -3.37900        2.62800       11.50400
C         -3.88400        1.54800       10.63700
C         -4.46200        0.33600       11.39800
O         -4.00100       -0.02300       12.48600
C         -2.77500        1.15200        9.66900
O         -3.06800       -0.05100        8.99800
N         -5.50300       -0.28300       10.82500
C         -6.21000       -1.39800       11.48100
C         -5.48300       -2.71100       11.21800
O         -5.77800       -3.73500       11.81900
C         -7.67700       -1.48000       11.01700
C         -8.66500       -0.65600       11.91200
O         -8.66700       -0.75600       13.15300
N         -9.52700        0.12400       11.26200
N         -4.48800       -2.66100       10.34500
C         -3.65200       -3.80000        9.99400
C         -2.94600       -4.47600       11.14900
O         -2.76400       -5.71200       11.18000
C         -2.56000       -3.24500        9.11400
C         -1.60400       -4.21800        8.55100
C         -1.73500       -4.90800        7.39400
C         -0.31800       -4.56200        9.07900
N         -0.62200       -5.68600        7.17800
C          0.26500       -5.48800        8.19700
C          0.39200       -4.19900       10.22500
C          1.51100       -6.03900        8.41800
C          1.63900       -4.75100       10.43100
C          2.18000       -5.64800        9.54800
N         -2.45600       -3.65100       12.05400
C         -1.69800       -4.13700       13.18900
C         -2.49400       -5.11200       13.99100
O         -1.95600       -6.00300       14.62000
C         -1.29900       -2.97500       14.08000
C         -0.23700       -2.13500       13.44800
C          1.00700       -2.66800       13.12600
C         -0.47500       -0.81200       13.14100
C          1.98600       -1.87600       12.50200
C          0.46900       -0.03400       12.52300
C          1.69500       -0.55300       12.20300
O          2.62400        0.27100       11.59300
N         -3.79600       -4.95200       13.94500
C         -4.68200       -5.77900       14.72000
C         -4.71400       -7.24900       14.28100
O         -5.29900       -8.04900       14.98500
C         -6.07600       -5.15900       14.70700
C         -6.25200       -4.05200       15.70700
C         -6.46500       -4.34100       17.03700
C         -6.25100       -2.72500       15.31100
C         -6.66800       -3.33000       17.97900
C         -6.44800       -1.69400       16.25300
C         -6.66500       -2.01600       17.59700
N         -4.12400       -7.61700       13.13900
C         -3.96800       -9.05100       12.81400
C         -2.56800       -9.58600       13.14900
O         -2.32600      -10.76900       13.02200
C         -4.25200       -9.42400       11.35300
C         -5.52400       -8.80600       10.79600
O         -6.62900       -9.05200       11.29600
N         -5.37400       -8.01000        9.72500
N         -1.64800       -8.74200       13.59700
C         -0.27600       -9.19800       13.83700
C          0.13500       -9.07000       15.30100
O          1.31300       -9.04900       15.65000
C          0.66200       -8.42300       12.90000
C          0.50900       -8.81200       11.46100
N         -0.61500       -8.50800       10.72200
C          1.31200       -9.53100       10.64200
C         -0.48900       -9.00000        9.50600
N          0.66300       -9.64200        9.43600
N         -0.86600       -9.05500       16.16500
C         -0.64800       -8.79000       17.57900
C          0.13000       -9.80700       18.38700
O          0.40400       -9.52400       19.54300
C         -1.98000       -8.45500       18.24500
C         -2.35900       -7.00200       17.90600
C         -3.66000       -6.55900       18.53900
C         -1.24400       -6.05900       18.33900
N          0.48700      -10.95900       17.80200
C          1.30400      -11.97400       18.47100
C          2.71900      -11.90100       17.92100
O          3.60800      -12.66700       18.34700
C          0.84500      -13.42600       18.23500
C         -0.62300      -13.69500       17.94900
C         -0.84200      -15.19600       17.69100
C         -2.26600      -15.50800       17.23800
N         -3.29400      -15.05100       18.21600
N          2.95600      -11.00700       16.97100
C          4.29100      -10.94900       16.38300
C          5.28100      -10.68300       17.47900
O          4.92100      -10.06300       18.46400
C          4.36900       -9.89400       15.28400
C          3.98200      -10.46800       13.93800
O          2.77200      -10.67700       13.69900
O          4.82900      -10.81100       13.09200
N          6.51400      -11.14500       17.36600
C          7.42300      -10.79700       18.44600
C          7.86600       -9.35600       18.31900
O          8.10300       -8.68400       19.31800
C          8.63700      -11.70100       18.58700
C          9.50900      -11.24200       19.78300
C          8.75400      -11.23000       21.15900
C          7.74800      -10.07900       21.39200
N          6.60400      -10.52100       22.29600
N          8.01900       -8.86500       17.10600
C          8.31000       -7.45300       16.94800
C          7.18500       -6.83800       16.15100
O          6.80800       -7.38900       15.14100
C          9.61100       -7.27400       16.18700
C         10.69300       -8.13900       16.81600
C         10.03400       -5.82300       16.21000
C         12.01300       -8.14700       16.03800
N          6.65200       -5.70800       16.60800
C          5.60600       -5.00000       15.91500
C          5.92300       -3.53200       15.73100
O          6.58900       -2.91600       16.53600
C          4.31900       -5.11900       16.67700
C          3.07800       -5.07400       15.80400
C          3.27800       -5.81100       14.48700
C          1.94200       -5.68700       16.59100
N          5.40400       -2.96000       14.65600
C          5.72000       -1.61000       14.30200
C          4.83200       -0.60600       14.94400
O          4.98800        0.56800       14.69600
N          3.88500       -1.03100       15.75500
C          3.03500       -0.05900       16.41500
C          3.38000        0.05700       17.91100
O          2.56600        0.44500       18.73000
C          1.59400       -0.48200       16.29500
S          1.40000       -2.10200       16.96300
N          4.59800       -0.28300       18.25200
C          4.99400       -0.32800       19.63300
C          5.80800        0.90100       19.95600
O          6.81500        1.11800       19.30500
C          5.77700       -1.63300       19.86500
C          4.88600       -2.78000       20.26100
O          3.64200       -2.68400       20.09300
O          5.34600       -3.83100       20.74600
N          5.36800        1.72500       20.91500
C          6.10600        2.94500       21.22900
C          6.74400        3.03200       22.64800
O          6.22100        2.57400       23.64100
C          5.24300        4.21100       20.88500
C          4.82300        4.26700       19.42500
C          3.66400        3.74800       18.86000
C          5.55700        4.82100       18.33800
N          3.65900        3.95900       17.50400
C          4.80900        4.61200       17.16200
C          6.76600        5.49100       18.23600
C          5.23800        5.03400       15.93100
C          7.19100        5.89900       17.01500
C          6.43200        5.67100       15.86800
N          7.93700        3.59500       22.70500
C          8.53500        3.98900       23.95400
C          8.15800        5.48000       24.20800
O          8.22000        6.30800       23.30300
C         10.06200        3.88300       23.88300
C         10.71400        2.49000       23.83200
C         10.37700        1.48100       24.70300
C         11.71000        2.22900       22.90000
C         11.03000        0.22700       24.65400
C         12.36800        1.00200       22.82500
C         12.04500        0.00900       23.71200
O         12.72600       -1.20500       23.60900
N          7.73100        5.80900       25.41800
C          7.47900        7.19200       25.80700
C          8.63500        7.60700       26.72100
O          8.72900        7.14400       27.84200
C          6.14200        7.29800       26.54500
C          4.97900        7.38800       25.62300
C          4.53700        6.26100       24.93400
C          4.37600        8.59900       25.36600
C          3.50000        6.33400       24.05900
C          3.32400        8.66000       24.49000
C          2.89000        7.53100       23.83100
N          9.52800        8.44900       26.22400
C         10.73000        8.80900       26.94500
C         10.78600       10.22600       27.53700
O         10.90800       11.20500       26.82200
C         11.90800        8.65200       25.99900
C         13.18100        8.75200       26.78600
C         11.81700        7.33700       25.35700
N         10.72400       10.34000       28.85300
C         10.80100       11.64500       29.50600
C         12.19600       11.96000       29.92400
O         12.86800       11.02000       30.29100
C          9.97800       11.43900       30.77200
C          9.84200        9.91300       30.94000
C         10.56900        9.25700       29.82700
N         12.62700       13.21900       29.92000
C         13.96200       13.52100       30.44900
C         14.04900       13.07000       31.86100
O         13.05500       13.09900       32.59000
C         14.31300       14.97000       30.46300
O         13.16900       15.73500       30.10900
C         15.34400       15.27200       29.37300
N         15.26800       12.70000       32.24900
C         15.50000       12.09700       33.55000
C         16.93100       12.31400       34.06400
O         17.91100       12.18100       33.33900
C         15.12400       10.60000       33.44200
C         15.00600        9.90700       34.79900
O         16.03500        9.38000       35.26900
O         13.94200        9.82100       35.45800
N         17.04900       12.66800       35.33300
C         18.35900       12.88400       35.96500
C         19.34600       11.74500       35.66800
O         20.57500       11.97000       35.47500
C         18.20000       12.96400       37.49500
C         16.76100       13.14700       37.97000
C         16.61300       13.37000       39.46800
O         17.64200       13.43200       40.18700
O         15.44300       13.48800       39.93000
N         18.78700       10.53500       35.68600
C         19.49100        9.29500       35.46700
C         19.98200        9.08100       34.06900
O         20.75500        8.18400       33.84000
N         19.52900        9.85000       33.10100
C         20.10300        9.68100       31.78600
C         20.43100       11.04400       31.30100
O         19.57700       11.90000       31.19700
C         19.19400        8.94100       30.81100
C         19.85200        8.65900       29.49000
C         20.27000        9.57500       28.58900
C         20.16300        7.37200       28.92800
N         20.80200        8.95000       27.49000
C         20.74700        7.59600       27.67800
C         19.99700        6.03800       29.36200
C         21.18200        6.56400       26.86200
C         20.42600        5.01500       28.55000
C         21.01000        5.28100       27.31300
N         21.70000       11.25600       31.05600
C         22.13200       12.49100       30.51300
C         23.14400       12.13400       29.48900
O         24.06200       11.38900       29.76500
C         22.75700       13.35400       31.54900
O         21.73200       13.99300       32.33600
C         23.46300       14.51200       30.86700
N         22.93400       12.62200       28.28000
C         23.89000       12.43200       27.22000
C         25.18600       13.11700       27.67600
O         25.15700       14.21200       28.20800
C         23.35400       13.04200       25.91800
C         22.04500       12.41200       25.45100
O         21.71500       11.28600       25.80800
N         21.30400       13.14000       24.62200
N         26.32100       12.46300       27.51900
C         27.55600       13.09900       27.93800
C         27.95900       14.02100       26.82400
O         27.64900       13.71000       25.68000
C         28.67400       12.09100       28.18100
C         28.25400       10.94500       29.08300
O         27.60200       11.20000       30.13700
O         28.55300        9.75900       28.80000
C         -0.55000       -0.06000       -5.25600
C         -0.05800       -1.18200       -4.40400
C         -1.17000       -2.18200       -4.14600
C         -1.80600       -2.61600       -5.44700
C         -2.99800       -3.55200       -5.23100
C         -1.20900       -0.61900       -6.46400
O         -1.78300        0.50100       -7.04800
O          0.58800        0.66200       -5.63900
O          0.31300       -0.51900       -3.22600
O         -0.41600       -2.87700       -3.32100
O         -2.25100       -1.43500       -6.03900
O         -4.01100       -2.91100       -4.48300
C         -1.19300       -3.73400       -2.52800
C         -0.28100       -4.74500       -1.87100
C         -1.14400       -5.65800       -1.03000
C         -1.85300       -4.80800       -0.00300
C         -2.74400       -3.86000       -0.79200
C         -3.69000       -2.99700        0.04700
O          0.42700       -5.54500       -2.78900
O         -0.74900       -6.90700       -0.83100
O         -1.27900       -3.99100        0.88900
O         -1.92000       -3.02200       -1.55900
O         -4.51500       -3.73000        0.90700
C         -1.13300       -3.97500        2.30500
C          0.26400       -3.53100        2.74200
C          0.36200       -3.34400        4.25100
C         -0.72600       -2.38000        4.63800
C         -2.07600       -2.88700        4.18600
C         -3.21200       -1.95000        4.55600
C          2.34100       -4.12200        1.60600
C          2.55900       -2.70700        1.27600
N          1.30100       -4.44500        2.36200
O          1.50400       -2.84900        4.74500
O         -0.40600       -1.18700        3.96400
O         -2.08700       -3.03300        2.76500
O         -3.82700       -2.39800        5.75700
O          3.12700       -4.92900        1.17500
C          2.09300       -2.80500        6.01700
C          3.59500       -3.06600        5.92100
C          4.15700       -2.99500        7.33800
C          3.81100       -1.67600        7.99900
C          2.32000       -1.46600        7.94800
C          2.02100       -0.07900        8.48600
O          3.91000       -4.33300        5.39600
O          5.60600       -2.97000        7.34600
O          4.47800       -0.59900        7.36400
O          1.89800       -1.54100        6.60600
O          0.97200        0.50300        7.73200
C          5.84900       -4.00700        9.27500
C          6.52500       -3.74600        8.18300
C          7.59200       -2.73000        8.18500
C          8.81100       -3.62500        8.36500
C          8.88200       -4.72700        7.32300
C          7.61100       -5.57000        7.35100
C          7.56200       -6.71600        6.33300
C          6.31400       -7.56500        6.47900
C          6.49300       -9.05600        6.20400
C         10.52300       -6.45600        6.76600
C         11.61500       -7.34600        7.27500
N         10.09300       -5.49100        7.59000
O          5.53500       -3.07400        9.98000
O          5.56300       -5.16900        9.56300
O          9.99600       -2.88300        8.23700
O          6.54600       -4.66900        7.10000
O          7.54200       -6.20000        5.01200
O          5.83400       -7.47900        7.82500
O          7.88800       -9.43900        6.36800
O         10.06300       -6.63000        5.65500
C         -1.41500       -7.61500        1.24000
C         -1.06700       -8.09200       -0.11400
C         -2.18200       -8.82500       -0.82600
C         -1.60900       -9.50600       -2.06700
C         -0.44600      -10.45600       -1.71700
C          0.58600       -9.65200       -0.93400
C          1.64600      -10.56900       -0.36900
C          2.79900       -9.68100        0.08600
C          2.74800       -9.24700        1.53800
C         -0.14400      -12.34600       -3.02700
C         -0.66700      -12.72300       -4.37500
N          0.30700      -11.13700       -2.79600
O         -2.46300       -7.03600        1.43900
O         -0.58600       -7.78400        2.11600
O         -2.72700      -10.13300       -2.63300
O          0.03500       -8.93900        0.15100
O          1.11700      -11.34300        0.69100
O          4.06400      -10.29800       -0.00300
O          1.86800       -8.15700        1.69600
O         -0.26800      -13.10300       -2.10000
C          4.38100      -10.39800       -2.23200
C          5.06400      -10.28500       -1.07200
C          5.76600      -11.42800       -0.41300
C          7.12900      -11.30600       -1.05700
C          7.71600       -9.90700       -0.93100
C          6.73300       -8.86900       -1.43900
C          7.21100       -7.43400       -1.40700
C          6.04200       -6.55600       -1.84200
C          6.42400       -5.07800       -1.76200
C         10.06500       -9.36100       -1.00900
C         11.37100       -9.41300       -1.76000
N          8.98900       -9.81900       -1.63300
O          4.03600      -11.50000       -2.66300
O          4.14400       -9.37200       -2.88100
O          7.98500      -12.20100       -0.40800
O          5.53600       -8.97800       -0.67500
O          7.63200       -7.05400       -0.10500
O          5.62400       -6.92800       -3.14700
O          6.81700       -4.78900       -0.41800
O          9.99300       -8.92800        0.13800
Si        -0.28600        1.57200      -10.51100
Si        -4.75800        0.75900       -8.46800
C         -1.47400        2.69200      -11.22300
C         -5.40100        0.02700       -6.96600
C          0.77500        0.91200      -11.78900
C         -5.98200        0.71400       -9.76200
C          0.74300        2.42900       -9.32500
C         -4.32100        2.46500       -8.18100
C         -1.10800        0.16600       -9.78200
C         -3.36400       -0.19400       -9.05800
C         -1.35300        0.37400       -8.29700
C         -2.13400        0.05100       -8.22400
O         27.40200        3.76000       31.64300
O        -10.48600        0.33900        8.05300
O         -9.05400       -2.95900       20.93700
O         25.04900        3.95000       18.68500
O          6.98400        3.67500       27.24700
O          3.07200       11.07700        9.65800
O         10.41900       -9.07400       44.44900
O         18.45100        0.14900       36.19400
O         18.81800       -0.01800       32.23600
O         26.61500       13.45100       32.33200
O         -3.37500       12.91600        6.10400
O         37.60400      -17.76700       49.20600
O        -19.78700       12.13500        8.17100
O         22.25300        5.16900       51.44900
O          6.59400       -5.36200       59.89600
O         25.85400       -4.53800       55.95800
O         -4.16500       17.74500       13.91100
O          0.13500        2.20500       18.20500
O         -3.69400       19.94000       33.46900
O         17.03400      -17.68100       31.34300
O         12.85100       -3.00900       25.85300
O         11.05700        6.04700       40.32300
O         23.54600        0.97000       59.49600
O         17.34900       -5.17900       27.58300
O          9.08200       22.09800       11.33200
O         21.65400        2.32500       21.47400
O         30.73600       -0.63400       30.33600
O          0.52500       26.09700       25.21600
O          8.02100      -10.53800       14.29800
O         31.38100        2.56900       41.16000
O         29.16300       11.62500       50.39100
O         30.51100        4.44400       38.73300
O         11.87900       17.89300        4.65500
O         21.17100      -15.43800       59.16500
O         21.79500      -14.38500       65.91800
O          0.43000       -7.27400        4.86600
O         14.17600      -11.50900       37.39300
O         11.33900       -1.99200       27.88800
O         11.78700        0.58300       28.19500
O          6.84900       -9.89200       26.74800
O         14.41500       -3.80200       31.71600
O         31.65600       -0.65100       34.39900
O         20.86000       16.32200       24.84200
O         13.93900       21.34700       24.18700
O         33.60700       -1.87500       54.67800
O        -11.42500        5.14100       32.68000
O         -6.59700        0.83200        8.50400
O        -11.90600       19.20700       13.42000
O         -5.63000       -9.30300       -1.30300
O         -3.13100       -6.53700        4.79500
O          2.45300       -4.30900       -3.50500
O         16.30700       -3.56500       29.66800
O         -4.30200        6.70200       -0.82800
O          7.89600      -13.17800       14.75400
O         28.80500        5.95400       41.50100
O         -9.63500       -0.93900       22.73600
O         11.72700       11.32600       47.58000
O          7.19500      -17.49000       -1.01400
O         -5.57500       -6.19100       -1.64700
O          6.39600       -3.92100       22.73400
O         27.29400        7.27500       29.74100
O         -9.06200        7.16000       33.45400
O        -17.65500        5.41300       10.99600
O          5.76400        1.47200       37.04500
O         20.39600      -21.67400       42.56200
O         10.54700       11.05600       18.98500
O          2.27800       13.84500       28.98200
O         37.00300       -9.66100       59.37200
O         14.54900       10.42800       23.59900
O         -9.95300        6.47700        2.63900
O         -1.60300        7.96800       -1.39600
O         16.30300       -8.41000       68.22600
O         34.33300      -22.83700       52.31300
O         11.54900       10.43300       34.41800
O          2.65200        5.59900       50.36900
O         18.49900      -13.21800       55.24800
O         25.42600       -0.25500       32.04400
O          1.02200       30.11600       26.38600
O         26.94900       13.24500       36.17900
O         15.59700       -5.25500       23.15900
O         18.37500      -21.51700       35.80000
O        -13.21400       -1.25100       17.44400
O         12.81700       17.46800        2.21600
O         37.27400       -6.49400       35.43300
O         32.19200       14.59100       40.48200
O        -16.94200       15.11000       25.80600
O         16.46200       -4.25700       67.17900
