536
VancomycinLacticAcid
N         -5.43700        4.15100       12.44600
C         -4.07500        3.81700       11.79600
C         -5.43000        5.39800       13.22200
C         -5.01200        6.55200       12.30300
O         -5.58300        6.71900       11.24000
C         -6.83000        5.70500       13.77500
C         -7.45600        4.66600       14.72500
C         -6.64000        4.45000       15.97500
C         -8.82000        5.15100       15.09800
N         -4.01900        7.37300       12.75100
C         -3.52800        8.43500       11.91200
C         -4.29100        9.76300       12.05700
O         -3.96700       10.71000       11.32700
C         -1.99100        8.73200       12.11600
O         -1.24700        7.52800       11.99000
C         -1.72900        9.38500       13.43500
C         -1.50100       10.77600       13.45500
C         -1.68600        8.65800       14.62600
C         -1.34000       11.43500       14.67600
C        -1.01200       13.10400       14.65900
C         -1.53300        9.34300       15.82900
C         -1.39600       10.72300       15.83600
O         -1.33000       11.40500       17.07000
N         -5.28600        9.80800       12.92900
C         -6.24100       10.93100       12.95300
C         -5.96100       11.96100       14.03100
O         -5.55800       13.08300       13.69600
C         -7.67100       10.41800       12.86000
C         -8.01200        9.32300       13.87300
O         -7.26000        9.01500       14.81700
N         -9.15400        8.68800       13.62600
N         -6.14800       11.58000       15.29900
C         -6.12500       12.52800       16.40200
C         -7.37700       12.35700       17.23700
O         -7.78300       11.24300       17.55500
C         -4.87400       12.52400       17.24300
C         -4.82800       13.11400       18.48700
C         -3.66500       13.10200       19.26800
C         -2.51100       12.55900       18.75600
O         -1.32400       12.44500       19.50900
C         -2.53100       11.98500       17.49700
C         -3.70900       11.96200       16.73900
N         -7.95100       13.49500       17.67800
C         -8.85400       13.51800       18.75800
C         -8.76500       14.93400       19.43000
O         -8.38400       15.86500       18.69700
C        -10.35600       13.32400       18.51800
C        -11.03300       12.30000       19.19200
C        -12.42800       12.24000       19.23800
C        -13.14400       13.19900       18.51500
O        -14.53000       13.14800       18.58900
C        -12.48300       14.15200       17.78400
C        -11.10200       14.21600       17.74400
N         -9.17100       15.08300       20.69000
C         -9.59000       14.08500       21.60600
O         -3.60000       13.61500       20.55100
C         -5.23700       14.99700       21.58400
C         -5.57500       12.60500       21.56600
C         -4.81300       13.74200       21.24000
C         -7.29300       14.06700       22.47000
C         -6.49900       15.15900       22.19900
C         -6.78600       12.77300       22.19600
C         -8.72800       14.17900       22.92000
C        -5.03100       10.99000       21.23200
O        -11.71700       15.22300       21.75100
C        -11.10600       14.16100       21.86100
O         -8.97100       15.41500       23.54800
N        -11.70600       13.00600       22.11500
O        -12.96700        9.54100       18.31600
C        -13.32600        9.91500       19.56400
C        -13.08800       11.20400       20.04600
C        -13.95100        8.93900       20.36000
C        -14.33100        9.24600       21.65100
O        -14.91800        8.35600       22.50200
C        -14.09600       10.51900       22.16700
C        -13.47100       11.49600       21.38600
C        -13.15900       12.86600       21.97300
C        -13.93000       13.15100       23.29000
O        -13.28600       13.07900       24.38600
O        -15.14700       13.40900       23.13900
N         -4.15100        5.43700       20.57400
C         -3.81700        4.07500       21.22400
C         -5.39800        5.43000       19.79800
C         -6.55200        5.01200       20.71700
O         -6.71900        5.58300       21.78000
C         -5.70500        6.83000       19.24500
C         -4.66600        7.45600       18.29500
C         -4.45000        6.64000       17.04500
C         -5.15100        8.82000       17.92200
N         -7.37300        4.01900       20.26900
C         -8.43500        3.52800       21.10800
C         -9.76300        4.29100       20.96300
O        -10.71000        3.96700       21.69300
C         -8.73200        1.99100       20.90400
O         -7.52800        1.24700       21.03000
C         -9.38500        1.72900       19.58500
C        -10.77600        1.50100       19.56500
C         -8.65800        1.68600       18.39400
C        -11.43500        1.34000       18.34400
C       -13.10400        1.01200       18.36100
C         -9.34300        1.53300       17.19100
C        -10.72300        1.39600       17.18400
O        -11.40500        1.33000       15.95000
N         -9.80800        5.28600       20.09100
C        -10.93100        6.24100       20.06700
C        -11.96100        5.96100       18.98900
O        -13.08300        5.55800       19.32400
C        -10.41800        7.67100       20.16000
C         -9.32300        8.01200       19.14700
O         -9.01500        7.26000       18.20300
N         -8.68800        9.15400       19.39400
N        -11.58000        6.14800       17.72100
C        -12.52800        6.12500       16.61800
C        -12.35700        7.37700       15.78300
O        -11.24300        7.78300       15.46500
C        -12.52400        4.87400       15.77700
C        -13.11400        4.82800       14.53300
C        -13.10200        3.66500       13.75200
C        -12.55900        2.51100       14.26400
O        -12.44500        1.32400       13.51100
C        -11.98500        2.53100       15.52300
C        -11.96200        3.70900       16.28100
N        -13.49500        7.95100       15.34200
C        -13.51800        8.85400       14.26200
C        -14.93400        8.76500       13.59000
O        -15.86500        8.38400       14.32300
C        -13.32400       10.35600       14.50200
C        -12.30000       11.03300       13.82800
C        -12.24000       12.42800       13.78200
C        -13.19900       13.14400       14.50500
O        -13.14800       14.53000       14.43100
C        -14.15200       12.48300       15.23600
C        -14.21600       11.10200       15.27600
N        -15.08300        9.17100       12.33000
C        -14.08500        9.59000       11.41400
O        -13.61500        3.60000       12.46900
C        -14.99700        5.23700       11.43600
C        -12.60500        5.57500       11.45400
C        -13.74200        4.81300       11.78000
C        -14.06700        7.29300       10.55000
C        -15.15900        6.49900       10.82100
C        -12.77300        6.78600       10.82400
C        -14.17900        8.72800       10.10000
C       -10.99000        5.03100       11.78800
O        -15.22300       11.71700       11.26900
C        -14.16100       11.10600       11.15900
O        -15.41500        8.97100        9.47200
N        -13.00600       11.70600       10.90500
O         -9.54100       12.96700       14.70400
C         -9.91500       13.32600       13.45600
C        -11.20400       13.08800       12.97400
C         -8.93900       13.95100       12.66000
C         -9.24600       14.33100       11.36900
O         -8.35600       14.91800       10.51800
C        -10.51900       14.09600       10.85300
C        -11.49600       13.47100       11.63400
C        -12.86600       13.15900       11.04700
C        -13.15100       13.93000        9.73000
O        -13.07900       13.28600        8.63400
O        -13.40900       15.14700        9.88100
N         -5.85800       13.03500       27.12300
C         -6.41900       13.33800       25.75800
C         -6.21000       11.69400       27.64600
C         -5.64100       10.68000       26.63900
O         -4.54700       10.90400       26.09700
C         -5.47000       11.48100       28.96400
C         -5.79500       12.41500       30.10900
C         -7.25400       12.37700       30.47500
C         -4.97300       12.19900       31.29500
N         -6.38100        9.58900       26.39800
C         -5.97200        8.67900       25.35100
C         -5.48400        7.31600       25.90700
O         -4.99900        6.50500       25.11800
C         -7.06600        8.46900       24.24500
O         -7.38200        9.82300       23.89500
C         -8.23500        7.67800       24.75600
C         -8.23800        6.27900       24.60500
C         -9.24900        8.27300       25.49100
C         -9.21700        5.52600       25.22800
C        -9.18700        3.79700       25.05500
C        -10.24000        7.50400       26.12400
C        -10.19000        6.12100       26.02300
O        -11.10200        5.36900       26.73800
N         -5.55700        7.13600       27.21400
C         -4.83700        6.03100       27.89700
C         -5.74700        4.94100       28.43400
O         -5.59600        3.76700       28.09300
C         -3.94900        6.61100       28.98400
C         -3.08500        7.77400       28.53900
O         -2.91800        8.79600       29.33700
N         -2.53200        7.67800       27.40100
N         -6.67800        5.32300       29.31700
C         -7.51900        4.38000       30.04700
C         -7.47400        4.67000       31.52900
O         -7.69500        5.82500       31.96500
C         -8.96500        4.36100       29.57300
C         -9.93500        3.79100       30.38100
C        -11.27000        3.81200       30.00300
C        -11.63000        4.30400       28.76700
O        -12.97300        4.46800       28.42400
O        -12.98600        3.82300       28.25400
C        -10.66500        4.85600       27.95600
C         -9.32300        4.90100       28.36500
N         -7.25200        3.61600       32.32200
C         -7.53300        3.58900       33.73100
C         -8.14800        2.17800       34.02300
O         -7.92700        1.28900       33.16100
C         -6.34500        3.68800       34.67200
C         -6.37600        4.61400       35.73400
C         -5.42300        4.59600       36.74400
C         -4.36300        3.65200       36.63600
O         -3.41700        3.69600       37.63300
C         -4.27000        2.82900       35.56100
C         -5.28300        2.82100       34.60300
N         -8.73800        1.92400       35.18200
C         -9.25500        2.87800       36.12000
O        -12.26800        3.30100       30.78800
C        -11.86700        1.88500       32.69400
C        -11.84400        4.28400       32.95700
C        -11.98700        3.15800       32.16100
C        -11.34100        2.88200       34.84300
C        -11.53700        1.73900       34.05200
C        -11.52000        4.15500       34.28600
C        -10.79400        2.76700       36.25000
C       -12.03500        5.91800       32.34300
O         -8.12400        1.64600       37.85300
C         -8.50600        2.75900       37.45000
O        -11.11700        1.51800       36.86100
N         -8.18100        3.89300       38.05500
O         -3.99300        6.96900       36.79400
C         -4.80400        6.75200       37.82800
C         -5.55500        5.54000       37.87900
C         -4.94000        7.68500       38.83800
C         -5.80100        7.45900       39.92800
O         -5.89100        8.38300       40.91000
C         -6.50500        6.27400       39.98200
C         -6.39200        5.29800       38.97800
C         -7.16000        3.97300       39.10100
C         -7.86800        3.75800       40.51300
O         -9.05100        4.08800       40.64200
O         -7.07000        3.38900       41.36600
N        -13.03500        5.85800        5.89700
C        -13.33800        6.41900        7.26200
C        -11.69400        6.21000        5.37400
C        -10.68000        5.64100        6.38100
O        -10.90400        4.54700        6.92300
C        -11.48100        5.47000        4.05600
C        -12.41500        5.79500        2.91100
C        -12.37700        7.25400        2.54500
C        -12.19900        4.97300        1.72500
N         -9.58900        6.38100        6.62200
C         -8.67900        5.97200        7.66900
C         -7.31600        5.48400        7.11300
O         -6.50500        4.99900        7.90200
C         -8.46900        7.06600        8.77500
O         -9.82300        7.38200        9.12500
C         -7.67800        8.23500        8.26400
C         -6.27900        8.23800        8.41500
C         -8.27300        9.24900        7.52900
C         -5.52600        9.21700        7.79200
C        -3.79700        9.18700        7.96500
C         -7.50400       10.24000        6.89600
C         -6.12100       10.19000        6.99700
O         -5.36900       11.10200        6.28200
N         -7.13600        5.55700        5.80600
C         -6.03100        4.83700        5.12300
C         -4.94100        5.74700        4.58600
O         -3.76700        5.59600        4.92700
C         -6.61100        3.94900        4.03600
C         -7.77400        3.08500        4.48100
O         -8.79600        2.91800        3.68300
N         -7.67800        2.53200        5.61900
N         -5.32300        6.67800        3.70300
C         -4.38000        7.51900        2.97300
C         -4.67000        7.47400        1.49100
O         -5.82500        7.69500        1.05500
C         -4.36100        8.96500        3.44700
C         -3.79100        9.93500        2.63900
C         -3.81200       11.27000        3.01700
C         -4.30400       11.63000        4.25300
O         -4.46800       12.97300        4.59600
O         -3.82300       12.98600        4.76600
C         -4.85600       10.66500        5.06400
C         -4.90100        9.32300        4.65500
N         -3.61600        7.25200        0.69800
C         -3.58900        7.53300       -0.71100
C         -2.17800        8.14800       -1.00300
O         -1.28900        7.92700       -0.14100
C         -3.68800        6.34500       -1.65200
C         -4.61400        6.37600       -2.71400
C         -4.59600        5.42300       -3.72400
C         -3.65200        4.36300       -3.61600
O         -3.69600        3.41700       -4.61300
C         -2.82900        4.27000       -2.54100
C         -2.82100        5.28300       -1.58300
N         -1.92400        8.73800       -2.16200
C         -2.87800        9.25500       -3.10000
O         -3.30100       12.26800        2.23200
C         -1.88500       11.86700        0.32600
C         -4.28400       11.84400        0.06300
C         -3.15800       11.98700        0.85900
C         -2.88200       11.34100       -1.82300
C         -1.73900       11.53700       -1.03200
C         -4.15500       11.52000       -1.26600
C         -2.76700       10.79400       -3.23000
C        -5.91800       12.03500        0.67700
O         -1.64600        8.12400       -4.83300
C         -2.75900        8.50600       -4.43000
O         -1.51800       11.11700       -3.84100
N         -3.89300        8.18100       -5.03500
O         -6.96900        3.99300       -3.77400
C         -6.75200        4.80400       -4.80800
C         -5.54000        5.55500       -4.85900
C         -7.68500        4.94000       -5.81800
C         -7.45900        5.80100       -6.90800
O         -8.38300        5.89100       -7.89000
C         -6.27400        6.50500       -6.96200
C         -5.29800        6.39200       -5.95800
C         -3.97300        7.16000       -6.08100
C         -3.75800        7.86800       -7.49300
O         -4.08800        9.05100       -7.62200
O         -3.38900        7.07000       -8.34600
C          0.36300       13.47400       20.80800
C          1.16000       14.75300       21.05400
C          1.78800       15.20900       19.74700
C          0.64900       15.31200       18.61600
C          1.18900       15.57900       17.20500
C         -0.64600       13.67200       19.77400
O         -0.23800       13.07800       22.04300
O          2.20500       14.51700       22.04500
O          2.31300       16.49700       19.92300
O         -0.03100       14.05000       18.55100
O          2.17100       14.76500       16.87300
C          0.35900       11.97100       22.71300
C         -0.17600       11.95700       24.11600
C         -1.58100       11.32600       24.14700
N         -1.85700       10.99600       25.61500
C         -2.66600       12.25800       23.70900
C         -1.57600       10.04200       23.33300
O         -0.56800        9.22600       24.04200
C         -1.13600       10.31000       21.90900
O          0.20500       10.82300       21.97000
C         -1.08400        9.13000       20.97400
C        -13.47400       -0.36300       12.21200
C        -14.75300       -1.16000       11.96600
C        -15.20900       -1.78800       13.27300
C        -15.31200       -0.64900       14.40400
C        -15.57900       -1.18900       15.81500
C        -13.67200        0.64600       13.24600
O        -13.07800        0.23800       10.97700
O        -14.51700       -2.20500       10.97500
O        -16.49700       -2.31300       13.09700
O        -14.05000        0.03100       14.46900
O        -14.76500       -2.17100       16.14700
C        -11.97100       -0.35900       10.30700
C        -11.95700        0.17600        8.90400
C        -11.32600        1.58100        8.87300
N        -10.99600        1.85700        7.40500
C        -12.25800        2.66600        9.31100
C        -10.04200        1.57600        9.68700
O         -9.22600        0.56800        8.97800
C        -10.31000        1.13600       11.11100
O        -10.82300       -0.20500       11.05000
C         -9.13000        1.08400       12.04600
C        -14.89800        5.46900       27.54000
C        -15.08000        4.66500       27.52200
C        -15.88800        6.64100       27.61900
C        -16.19700        5.73600       27.74400
C        -16.01400        7.23100       29.01300
C        -16.45200        5.91500       29.22200
C        -14.55100        7.51600       29.59000
C        -15.06100        6.25800       29.95600
C        -14.48700        8.13700       30.93600
C        -15.17900        6.60500       31.43800
C        -13.62500        5.73500       28.26500
C        -13.90900        4.91200       28.36200
O        -14.62200        5.20600       26.16200
O        -14.71400        4.79800       26.13800
O        -17.20700        6.13400       27.25900
O        -17.39200        5.24200       27.06300
O        -16.75000        8.41700       28.98900
O        -17.36700        7.00000       29.42900
O        -13.87900        6.22800       29.60200
O        -14.21200        5.04000       29.72400
O        -13.31600        8.63100       31.36000
O        -15.30900        7.86700       31.70200
C        -15.09000        3.98400       25.47800
C        -15.02300        4.25300       23.96000
C        -13.55000        4.21900       23.43100
N        -13.61900        4.15400       21.92800
C        -12.80500        5.46800       23.80200
C        -12.88800        2.94200       23.95100
O        -13.53700        1.83400       23.30000
C        -12.99000        2.87000       25.48600
O        -14.37500        2.82700       25.84100
C        -12.34700        1.61200       26.03100
C         -5.46900       14.89800        5.48000
C         -4.66500       15.08000        5.49800
C         -6.64100       15.88800        5.40100
C         -5.73600       16.19700        5.27600
C         -7.23100       16.01400        4.00700
C         -5.91500       16.45200        3.79800
C         -7.51600       14.55100        3.43000
C         -6.25800       15.06100        3.06400
C         -8.13700       14.48700        2.08400
C         -6.60500       15.17900        1.58200
C         -5.73500       13.62500        4.75500
C         -4.91200       13.90900        4.65800
O         -5.20600       14.62200        6.85800
O         -4.79800       14.71400        6.88200
O         -6.13400       17.20700        5.76100
O         -5.24200       17.39200        5.95700
O         -8.41700       16.75000        4.03100
O         -7.00000       17.36700        3.59100
O         -6.22800       13.87900        3.41800
O         -5.04000       14.21200        3.29600
O         -8.63100       13.31600        1.66000
O         -7.86700       15.30900        1.31800
C         -3.98400       15.09000        7.54200
C         -4.25300       15.02300        9.06000
C         -4.21900       13.55000        9.58900
N         -4.15400       13.61900       11.09200
C         -5.46800       12.80500        9.21800
C         -2.94200       12.88800        9.06900
O         -1.83400       13.53700        9.72000
C         -2.87000       12.99000        7.53400
O         -2.82700       14.37500        7.17900
C         -1.61200       12.34700        6.98900
C        -2.82200       13.96700       26.98200
C        -9.81800       10.47400       22.20200
C       -13.96700        2.82200        6.03800
C       -10.47400        9.81800       10.81800
C        -9.53200        6.37900       36.58300
C         -8.19800        8.83200       29.25800
C         -9.16600        8.82900       30.39900
C        -10.42800        8.10300       30.01500
O         -7.10600        8.21600       29.43800
O         -8.63700        8.40700       31.60800
O         -8.50400        9.55200       28.26100
C        -6.37900        9.53200       -3.56300
C         -8.83200        8.19800        3.76200
C         -8.82900        9.16600        2.62100
C         -8.10300       10.42800        3.00500
O         -8.21600        7.10600        3.58200
O         -8.40700        8.63700        1.41200
O         -9.55200        8.50400        4.75900
O         -5.70700        1.58200       13.69000
O         -7.12400        3.83500       10.32700
O         -0.43900        3.85200       13.13900
O          0.82600        7.76700       18.09300
O         -0.49500        6.12600       17.03500
O         -2.13900        6.02500        9.87700
O         -2.32800        5.22800       14.86800
O          1.17900       10.74300       18.32500
O          0.51500        4.69800       10.79100
O        -10.30600       20.37500       16.95900
O          0.06200        5.05900       21.90900
O        -10.57600       10.57600       16.51000
O        -10.32100       17.98100       18.37700
O        -16.06200       15.04400       17.55400
O        -12.16500       17.45600       20.16500
O        -11.11900       14.68700       25.17800
O        -11.88200       17.23400       24.07900
O        -13.74800        8.82000       25.35600
O        -11.60900       10.77300       24.88300
O        -14.42100       13.44400       26.82200
O          1.68800       14.77700       24.76500
O          4.05000       12.23900       22.44700
O         -0.03600        9.33700       27.15600
O         -1.13500        6.65200       23.69800
O          2.72000        9.95000       20.74100
O         -1.58200        5.70700       19.33000
O         -3.83500        7.12400       22.69300
O         -3.85200        0.43900       19.88100
O         -7.76700       -0.82600       14.92700
O         -6.12600        0.49500       15.98500
O         -6.02500        2.13900       23.14300
O         -5.22800        2.32800       18.15200
O        -10.74300       -1.17900       14.69500
O         -4.69800       -0.51500       22.22900
O        -20.37500       10.30600       16.06100
O         -5.05900       -0.06200       11.11100
O        -10.57600       10.57600       16.51000
O        -17.98100       10.32100       14.64300
O        -15.04400       16.06200       15.46600
O        -17.45600       12.16500       12.85500
O        -14.68700       11.11900        7.84200
O        -17.23400       11.88200        8.94100
O         -8.82000       13.74800        7.66400
O        -10.77300       11.60900        8.13700
O        -13.44400       14.42100        6.19800
O        -14.77700       -1.68800        8.25500
O        -12.23900       -4.05000       10.57300
O         -9.33700        0.03600        5.86400
O         -6.65200        1.13500        9.32200
O         -9.95000       -2.72000       12.27900
O         -5.16200        3.80000       25.01100
O        -10.03500        9.55100       40.82500
O         -1.46700        5.48700       26.19000
O        -10.96200        7.06500       39.35600
O         -2.01300        9.20300       42.43100
O         -8.08100        7.37000       34.14000
O         -1.28100        2.12400       37.29600
O        -13.83700        1.81500       37.10500
O         -2.71400        9.34400       36.65900
O         -4.04200       10.54100       40.56100
O         -4.11300        3.62600       40.83600
O         -9.42000        6.24900       42.55100
O         -7.64600        7.55700       42.86400
O        -12.71700       10.87400       28.97300
O        -18.42000        3.01300       27.78800
O        -16.11500       10.47500       26.97400
O        -15.61300        4.06200       31.58300
O         -5.26500        8.47100       31.88800
O        -10.62300       10.98500       27.55500
O         -6.25400        9.50100       33.96800
O         -3.80000        5.16200        8.00900
O         -9.55100       10.03500       -7.80500
O         -5.48700        1.46700        6.83000
O         -7.06500       10.96200       -6.33600
O         -9.20300        2.01300       -9.41100
O         -7.37000        8.08100       -1.12000
O         -2.12400        1.28100       -4.27600
O         -1.81500       13.83700       -4.08500
O         -9.34400        2.71400       -3.63900
O        -10.54100        4.04200       -7.54100
O         -3.62600        4.11300       -7.81600
O         -6.24900        9.42000       -9.53100
O         -7.55700        7.64600       -9.84400
O        -10.87400       12.71700        4.04700
O         -3.01300       18.42000        5.23200
O        -10.47500       16.11500        6.04600
O         -4.06200       15.61300        1.43700
O         -8.47100        5.26500        1.13200
O        -10.98500       10.62300        5.46500
O         -9.50100        6.25400       -0.94800
