12831
VATPaseLiRotor
N         63.04900       41.18600       25.43100
C         62.14900       42.10900       24.68400
C         62.13800       43.49600       25.29500
O         62.49000       44.47400       24.63100
C         60.71800       41.56700       24.62900
C         59.67700       42.58000       24.14500
S         59.81500       43.02600       22.39600
C         58.47400       42.06800       21.69100
N         61.71100       43.57700       26.55400
C         61.64400       44.84700       27.26000
C         63.03600       45.45400       27.38000
O         63.20900       46.66200       27.21600
C         61.00800       44.65900       28.63500
C         60.26500       45.87500       29.16100
S         59.10700       46.61100       27.98400
C         60.01300       48.09400       27.53100
N         64.02100       44.59600       27.63500
C         65.41300       44.99900       27.68400
C         65.89500       45.48200       26.31200
O         66.65600       46.45200       26.21600
C         66.26700       43.83300       28.17800
C         67.61200       44.28500       28.71100
O         68.52500       44.55900       27.89500
O         67.75800       44.36200       29.95200
N         65.43900       44.80600       25.25800
C         65.77100       45.17300       23.87600
C         65.21200       46.54600       23.48800
O         65.94300       47.37900       22.95100
C         65.29600       44.08200       22.90300
C         65.20900       44.49800       21.44200
C         66.35500       44.58800       20.64600
C         63.97500       44.78000       20.85200
C         66.27700       44.96200       19.31100
C         63.89100       45.15900       19.52000
C         65.04600       45.24400       18.75700
O         64.97100       45.61000       17.43500
N         63.92700       46.77700       23.76600
C         63.28800       48.06700       23.48600
C         63.95800       49.20600       24.25200
O         64.19500       50.28100       23.69800
C         61.79100       48.02600       23.80100
C         60.91300       47.10000       22.95800
C         59.48500       47.12200       23.46900
C         60.94700       47.46000       21.48500
N         64.27000       48.95500       25.52000
C         64.99300       49.92000       26.35000
C         66.33800       50.29300       25.71100
O         66.57500       51.46100       25.40000
C         65.15000       49.40500       27.81900
C         63.80800       49.50000       28.56700
C         66.22800       50.18300       28.56000
C         63.62100       48.48100       29.67300
N         67.17900       49.29100       25.46800
C         68.55000       49.51400       25.02100
C         68.70300       49.90800       23.54300
O         69.78500       50.31400       23.12700
C         69.44800       48.29400       25.33500
O         68.83800       47.11000       24.81800
C         69.64700       48.13000       26.84500
N         67.63400       49.79400       22.75700
C         67.68300       50.14000       21.32500
C         66.81300       51.34300       20.98400
O         66.49900       51.58000       19.81400
C         67.26000       48.95000       20.45000
C         68.08000       47.68800       20.64000
C         69.53700       47.88600       20.31700
O         69.88500       48.31500       19.21300
N         70.40700       47.57000       21.27900
N         66.42800       52.09700       22.01000
C         65.44200       53.18700       21.88500
C         64.19800       52.82900       21.04900
O         63.83800       53.52600       20.09600
C         66.09600       54.48700       21.39700
C         66.86700       55.19300       22.49700
O         67.99600       54.81600       22.82000
N         66.26300       56.22800       23.07700
N         63.54800       51.73100       21.42000
C         62.33300       51.30500       20.75300
C         61.09200       51.85000       21.42600
O         60.05000       51.20600       21.39100
N         61.20300       53.03100       22.03700
C         60.06000       53.71400       22.64400
C         58.97800       54.07400       21.63800
O         57.80300       54.17900       21.98700
N         59.39500       54.26700       20.38900
C         58.50900       54.44900       19.23400
C         57.32100       53.46200       19.24100
O         56.18300       53.85600       18.94200
C         59.35000       54.32400       17.94700
C         58.64200       54.52000       16.61800
C         58.55100       54.33500       16.63800
S         59.80200       54.93400       15.28100
S         57.62200       55.85800       16.32300
C         61.09600       53.70900       15.46500
C         58.90300       56.87600       15.57900
N         57.58100       52.20000       19.60500
C         56.53300       51.17300       19.63000
C         55.37100       51.58800       20.53200
O         54.20400       51.42700       20.16100
C         57.07100       49.73400       19.96000
C         58.25000       49.37300       19.05800
C         55.94600       48.71600       20.00800
C         57.42400       49.57600       21.42700
C         58.11900       49.31100       18.93800
N         55.69000       52.15800       21.69100
C         54.66200       52.59400       22.63100
C         53.91100       53.82500       22.14600
O         52.71800       53.97300       22.43100
C         55.23800       52.80300       24.02800
C         55.82500       51.56500       24.61200
C         57.20700       51.42500       24.73400
C         55.00300       50.51300       25.00700
C         57.76400       50.26200       25.25900
C         55.54500       49.34000       25.53600
C         56.93100       49.21500       25.66200
N         54.60200       54.69300       21.40900
C         53.96700       55.86100       20.79900
C         53.01500       55.45300       19.66200
O         51.94200       56.05200       19.49300
C         55.01100       56.83600       20.30100
N         53.41300       54.43600       18.89300
C         52.54700       53.86600       17.86400
C         51.29700       53.27500       18.53100
O         50.17000       53.53200       18.11100
C         53.29300       52.80800       17.01500
C         52.34800       52.11600       16.04400
C         54.45300       53.45600       16.26700
N         51.51400       52.51300       19.59800
C         50.42200       51.94800       20.36900
C         49.53300       53.04500       20.94000
O         48.30500       52.88100       21.01000
C         50.95700       51.04800       21.48800
C         49.95500       50.17500       22.25400
C         51.44900       49.66300       21.06800
C         49.33200       49.11500       21.34400
C         52.00600       48.93400       22.27300
C         50.62800       49.51700       23.44000
C         50.32600       48.85900       20.42200
N         50.15500       54.15800       21.33400
C         49.43400       55.33300       21.83000
C         48.44600       55.84000       20.78700
O         47.27300       56.07900       21.09600
C         50.39500       56.42200       22.20400
N         48.92000       55.97400       19.54800
C         48.07800       56.41600       18.43900
C         46.93300       55.45000       18.17700
O         45.78000       55.87700       18.01800
C         48.90600       56.61900       17.18700
C         49.81500       57.79900       17.29200
S         50.88000       57.99900       15.85700
C         49.64200       58.13900       14.55400
N         47.24700       54.15500       18.16700
C         46.23300       53.12700       17.96500
C         45.16600       53.22200       19.04900
O         43.97400       53.21200       18.72700
C         46.85100       51.73600       17.92100
N         45.58700       53.36200       20.31200
C         44.65800       53.42300       21.45700
C         43.70400       54.60300       21.38300
O         42.48000       54.42600       21.49700
C         45.41000       53.41500       22.78900
O         46.50900       54.32600       22.73400
O         46.21900       52.23900       22.82600
C         45.92100       52.03000       23.10500
C         44.47500       53.40900       23.97800
N         44.26300       55.79500       21.18000
C         43.45800       57.00800       21.00800
C         42.40900       56.83900       19.89900
O         41.23800       57.20300       20.08000
C         44.35000       58.20900       20.71800
N         42.83200       56.26600       18.77100
C         41.96600       56.10900       17.61100
C         40.89400       55.05900       17.84500
O         39.70400       55.34200       17.67000
C         42.77600       55.74700       16.34800
O         43.84800       56.68300       16.18600
C         41.88800       55.76500       15.10300
N         41.32200       53.86200       18.25000
C         40.44100       52.69900       18.35200
C         39.26900       52.91600       19.31400
O         38.10300       52.80800       18.91800
C         41.23200       51.39900       18.69600
C         42.08100       50.97100       17.49900
C         40.28700       50.23700       19.09200
C         43.22800       50.06600       17.87000
N         39.57200       53.24700       20.56100
C         38.52900       53.27500       21.57900
C         37.54300       54.43500       21.43300
O         36.33900       54.24700       21.60900
C         39.13000       53.16000       22.98000
C         39.81100       51.86100       23.20900
C         41.19300       51.75000       23.08900
C         39.06600       50.72600       23.48000
C         41.82800       50.51800       23.26300
C         39.68700       49.48700       23.65700
C         41.07200       49.38500       23.54500
N         38.03800       55.61900       21.07800
C         37.15100       56.73100       20.76800
C         36.31600       56.41300       19.52100
O         35.12200       56.71500       19.47900
C         37.95300       58.00700       20.56300
O         38.77700       57.87000       19.42400
N         36.95000       55.79900       18.52100
C         36.25600       55.34300       17.31400
C         35.13800       54.35100       17.59600
O         34.04900       54.46200       17.03000
N         35.40600       53.38600       18.47900
C         34.40500       52.39800       18.85600
C         33.21400       53.08500       19.52700
O         32.05200       52.79500       19.20500
C         34.98700       51.30400       19.77100
C         35.94800       50.40400       18.97600
C         33.86600       50.44300       20.38200
C         36.73700       49.44200       19.85200
N         33.50800       54.00500       20.44700
C         32.48000       54.79900       21.11300
C         31.57000       55.50100       20.11300
O         30.34600       55.42800       20.20400
N         32.17400       56.17700       19.14600
C         31.41200       56.86100       18.12800
C         30.67500       55.88600       17.23100
O         29.49100       56.09000       16.97000
C         32.29700       57.78100       17.30500
O         32.52100       58.99900       18.00500
N         31.34400       54.82300       16.77600
C         30.68700       53.85000       15.91500
C         29.42100       53.32300       16.59400
O         28.34900       53.29500       15.99600
C         31.63300       52.70800       15.55800
N         29.54400       52.94000       17.85900
C         28.41400       52.43800       18.61100
C         27.32700       53.48200       18.85000
O         26.14000       53.20000       18.64500
C         28.88900       51.86100       19.93100
C         29.41800       50.46000       19.77600
C         29.95100       49.94000       21.07900
C         30.13500       48.44700       20.98000
N         28.80300       47.77400       20.94200
N         27.73100       54.68300       19.27300
C         26.79600       55.76200       19.55900
C         26.08700       56.25600       18.31900
O         24.86400       56.39600       18.32800
N         26.85800       56.53200       17.26100
C         26.31700       56.96200       15.97100
C         25.45700       55.84200       15.38100
O         24.38800       56.10100       14.81000
C         27.44700       57.36300       14.98200
C         26.91400       57.57200       13.56500
C         28.16400       58.60900       15.47700
N         25.92000       54.60400       15.54300
C         25.18300       53.44700       15.07500
C         23.80900       53.32800       15.71800
O         22.78100       53.20300       15.02000
N         23.78900       53.37300       17.04900
C         22.54300       53.28900       17.79500
C         21.55300       54.39700       17.42600
O         20.36700       54.13000       17.20000
C         22.80100       53.31700       19.29600
C         21.51200       53.28200       20.09000
S         21.77000       53.26300       21.85800
C         22.13300       51.50700       22.09600
N         22.03700       55.63200       17.37000
C         21.19500       56.75800       17.00600
C         20.68600       56.60000       15.57500
O         19.50800       56.84500       15.30500
C         21.92300       58.10400       17.21300
O         22.45600       58.15400       18.54600
C         20.96400       59.27400       17.04500
N         21.56700       56.15900       14.67800
C         21.20000       55.86100       13.29900
C         20.04800       54.87500       13.19500
O         19.12600       55.07300       12.39500
N         20.08800       53.81600       14.00200
C         18.99800       52.82900       14.03000
C         17.65700       53.46800       14.41900
O         16.63400       53.23100       13.76300
C         19.32600       51.67500       14.98000
C         20.51700       50.84200       14.55800
C         20.89700       49.81100       15.60100
O         20.08200       48.90400       15.86100
O         22.01600       49.89600       16.16100
N         17.67800       54.28200       15.47900
C         16.50000       55.02600       15.92500
C         16.02800       56.01300       14.86000
O         14.82500       56.13100       14.60200
C         16.78600       55.74600       17.21000
N         16.97800       56.71100       14.24300
C         16.68000       57.66300       13.17400
C         16.04300       56.96300       11.96900
O         15.06100       57.46000       11.39700
C         17.93800       58.41600       12.75800
N         16.58900       55.80600       11.60100
C         16.03900       55.03200       10.49900
C         14.60700       54.60400       10.80200
O         13.73700       54.71400        9.93800
C         16.90900       53.82600       10.19400
N         14.36200       54.12800       12.02800
C         13.01300       53.71100       12.45400
C         12.00600       54.86900       12.32400
O         10.92300       54.69500       11.75700
C         13.03300       53.15600       13.86400
N         12.38200       56.05300       12.81200
C         11.55500       57.23800       12.65600
C         11.28900       57.56000       11.18800
O         10.17000       57.92400       10.82700
C         12.18900       58.44000       13.35200
C         11.45300       59.78200       13.21100
C         10.04500       59.73200       13.80300
C         12.24800       60.92600       13.82100
N         12.31300       57.41500       10.34900
C         12.21900       57.77500        8.93600
C         11.20800       56.91400        8.16500
O         10.64500       57.36600        7.16400
C         13.60700       57.74900        8.25800
O         14.48800       58.63400        8.96000
C         13.52600       58.18700        6.79500
N         10.96200       55.69200        8.64300
C         10.02200       54.78500        7.97100
C          8.59200       55.31100        8.01500
O          7.75500       54.89900        7.21500
C         10.02800       53.35400        8.55700
O          9.40300       53.36200        9.84200
C         11.44700       52.79500        8.66800
N          8.30200       56.20900        8.94900
C          6.97400       56.80200        9.00600
C          6.96500       58.33200        8.85600
O          6.02700       58.88900        8.30000
C          6.23800       56.36300       10.26800
O          6.61500       57.15500       11.37700
N          8.00000       59.01000        9.34000
C          8.08700       60.47000        9.20700
C          9.42200       60.91500        8.59400
O         10.27800       61.46600        9.30400
C          7.88200       61.14100       10.55400
C          6.55800       60.83400       11.20800
C          6.56900       61.16800       12.68500
O          6.60500       62.32800       13.05700
N          6.54700       60.14300       13.53500
N          9.59400       60.68500        7.26800
C         10.85900       60.99200        6.60100
C         11.18600       62.48400        6.56400
O         12.34100       62.85100        6.36500
C         10.65000       60.46000        5.17900
C          9.19500       60.43200        4.98900
C          8.60100       60.13500        6.32100
N         10.18500       63.33600        6.76500
C         10.39800       64.78100        6.70600
C         11.23100       65.30500        7.88100
O         11.69500       66.44400        7.85200
C          9.06600       65.52900        6.58400
C          8.19900       65.52500        7.83900
C          7.38700       64.24500        8.02200
O          6.75200       64.11000        9.10000
O          7.37500       63.38600        7.10500
N         11.43800       64.47000        8.89800
C         12.21700       64.86400       10.07300
C         13.69100       64.44800        9.97500
O         14.44100       64.51000       10.95400
C         11.55100       64.31500       11.33300
C         10.21600       64.97400       11.57400
C          9.40100       64.26100       12.59900
C          8.13300       65.04000       12.87800
N          7.48600       64.56600       14.13200
N         14.08900       64.06100        8.76700
C         15.41800       63.54900        8.46500
C         16.56800       64.44300        8.92700
O         17.45500       63.98400        9.65000
C         15.52300       63.27200        6.96400
C         16.89200       62.87800        6.50800
C         17.43700       61.65000        6.88500
C         17.64000       63.72800        5.69800
C         18.71200       61.27200        6.46600
C         18.92100       63.36500        5.27000
C         19.45800       62.13100        5.65000
N         16.55200       65.70700        8.51200
C         17.61600       66.65400        8.85700
C         17.87500       66.75500       10.35300
O         19.02100       66.69300       10.80200
N         16.80600       66.89600       11.12800
C         16.91400       66.98200       12.57700
C         17.44400       65.65900       13.15800
O         18.28700       65.66800       14.05600
C         15.56900       67.38600       13.20600
C         14.88400       68.63600       12.58600
C         15.18000       68.85500       12.99500
C         13.83300       68.30900       11.51400
C         15.90000       69.80900       13.93400
O         12.62500       68.33300       11.78400
O         17.10200       70.02800       13.82600
N         14.29100       68.01500       10.29700
N         15.15500       70.39200       14.85200
N         16.96800       64.53300       12.62000
C         17.42400       63.20300       13.03400
C         18.91700       63.03000       12.77100
O         19.64700       62.44000       13.57900
C         16.63500       62.12800       12.31300
N         19.36100       63.56500       11.63600
C         20.76700       63.51800       11.25200
C         21.66100       64.27500       12.24500
O         22.71700       63.77500       12.64200
C         20.93500       64.07000        9.83800
C         22.21100       63.73000        9.07000
C         22.54300       62.25400        9.17900
C         22.06400       64.15500        7.60700
N         21.22600       65.46900       12.65900
C         21.96100       66.25200       13.66300
C         22.14100       65.44500       14.94900
O         23.25600       65.37400       15.48800
C         21.29200       67.61900       13.95800
C         21.41100       68.53700       12.74800
C         21.92100       68.29100       15.18800
C         20.43300       69.66500       12.78500
N         21.05400       64.83200       15.42500
C         21.12000       63.98200       16.61400
C         22.12600       62.84000       16.43300
O         22.89800       62.53600       17.34500
C         19.73900       63.44600       16.99500
C         18.79500       64.40200       17.72900
C         17.39300       63.82700       17.75500
C         19.27600       64.69500       19.13500
N         22.13800       62.23400       15.25000
C         23.07900       61.15100       14.96200
C         24.54700       61.60700       14.97400
O         25.44500       60.81100       15.27500
C         22.75100       60.47700       13.63000
C         23.40400       59.12900       13.47500
C         23.39200       58.61900       12.05400
O         22.95800       59.31300       11.13200
N         23.88100       57.39500       11.86600
N         24.79000       62.87600       14.65100
C         26.15500       63.38800       14.62000
C         26.75900       63.61800       16.00000
O         27.96700       63.52800       16.15900
C         26.25700       64.65800       13.77000
C         26.00300       64.51100       12.25300
C         26.23900       65.83700       11.52600
C         26.80600       63.35200       11.60000
N         25.92600       63.89900       16.99800
C         26.42300       64.17600       18.35500
C         27.39900       63.12900       18.92800
O         28.49500       63.49600       19.36800
C         25.26300       64.45200       19.31100
C         24.72700       65.87700       19.47100
C         25.11100       66.84800       18.34800
C         23.21200       65.81500       19.65900
N         27.02800       61.82200       18.90800
C         27.98800       60.81500       19.40300
C         29.17500       60.61500       18.45900
O         30.09300       59.86500       18.77400
C         27.16300       59.52300       19.48500
C         25.76100       59.90900       19.22000
C         25.77500       61.18800       18.45700
N         29.16200       61.29700       17.32100
C         30.21900       61.15500       16.34500
C         31.47500       61.96200       16.59400
O         32.48000       61.74400       15.92900
N         31.42500       62.90000       17.53800
C         32.56100       63.78000       17.81200
C         33.70500       63.05300       18.54100
O         34.88100       63.35300       18.31700
C         32.13900       65.04100       18.61600
O         31.42500       64.62800       19.78500
C         31.25100       65.96600       17.79300
N         33.35500       62.10100       19.40000
C         34.33700       61.32500       20.17000
C         35.49300       60.75300       19.33100
O         36.66800       60.92900       19.67700
C         33.64900       60.18000       20.94000
C         33.03100       60.60000       22.26500
C         31.66800       61.27900       22.12000
O         31.27700       61.73800       21.03400
N         30.93700       61.35400       23.22900
N         35.15500       60.06800       18.24100
C         36.15200       59.47800       17.36600
C         37.02800       60.51500       16.68400
O         38.19900       60.24800       16.38500
N         36.46500       61.69700       16.42600
C         37.22700       62.77800       15.83200
C         38.25700       63.31600       16.81500
O         39.39800       63.58700       16.41900
C         36.31500       63.88800       15.32700
C         35.44700       63.57400       14.10200
C         34.36800       64.64900       13.90600
C         36.30300       63.44100       12.84500
N         37.87000       63.45800       18.08600
C         38.81800       63.86000       19.13700
C         39.99000       62.88700       19.22200
O         41.15900       63.31200       19.29300
C         38.15300       63.92600       20.50700
C         37.04700       64.94400       20.65100
C         35.92300       64.65300       21.42100
C         37.11900       66.19700       20.03000
C         34.90700       65.56900       21.57600
C         36.09700       67.12100       20.17000
C         34.99400       66.79700       20.94900
O         33.97200       67.70400       21.11200
N         39.66700       61.58900       19.22000
C         40.67100       60.53100       19.28500
C         41.63200       60.62000       18.11500
O         42.85300       60.52900       18.28500
N         41.07300       60.82200       16.92500
C         41.85900       60.96200       15.70600
C         42.82000       62.15000       15.81300
O         44.00800       62.03300       15.48800
C         40.93400       61.10700       14.49000
C         41.66100       61.33700       13.19800
C         42.16800       60.26500       12.46900
C         41.84500       62.63500       12.70100
C         42.85700       60.48400       11.25900
C         42.52600       62.85900       11.50900
C         43.03300       61.78400       10.78500
N         42.30000       63.28800       16.27300
C         43.11200       64.49900       16.46700
C         44.26500       64.23000       17.44600
O         45.40500       64.57200       17.14500
C         42.25100       65.73100       16.89000
C         43.11700       66.88000       17.35900
C         41.35300       66.16800       15.74100
N         43.97900       63.58300       18.58200
C         45.02600       63.19800       19.54100
C         46.06600       62.28200       18.90000
O         47.27300       62.49200       19.08800
C         44.45000       62.56300       20.84000
C         43.71100       63.62100       21.67500
C         45.54900       61.89200       21.67700
C         44.54100       64.86100       22.03600
N         45.60500       61.29600       18.12800
C         46.50900       60.38700       17.40700
C         47.44200       61.15200       16.46300
O         48.65400       60.90200       16.42800
C         45.71900       59.33100       16.64100
N         46.87100       62.09800       15.71700
C         47.63200       62.90400       14.77300
C         48.63200       63.82800       15.47800
O         49.73100       64.09400       14.96600
C         46.68800       63.71700       13.88800
C         47.37200       64.35700       12.72900
C         47.73200       63.59700       11.60900
C         47.69700       65.71900       12.75900
C         48.39800       64.19700       10.52000
C         48.35500       66.32900       11.68100
C         48.70500       65.57100       10.56200
N         48.24500       64.31500       16.65300
C         49.11800       65.16100       17.46200
C         50.31500       64.38300       17.99000
O         51.43100       64.90600       18.01100
C         48.34500       65.80200       18.61500
C         48.99100       67.01100       19.30200
C         47.39000       66.93800       18.23200
C         48.90300       68.25900       18.42200
C         46.29200       67.04900       19.26200
C         48.33400       67.25700       20.64200
C         48.11200       68.27300       18.05400
N         50.08400       63.13800       18.41600
C         51.18800       62.23700       18.73300
C         52.06700       62.03500       17.48400
O         53.29700       62.17900       17.55000
C         50.69900       60.88200       19.28200
C         49.94400       61.08300       20.59500
C         51.87500       59.93300       19.50900
C         49.11500       59.87400       21.04300
N         51.42300       61.73500       16.35100
C         52.12500       61.45800       15.09700
C         53.13900       62.53400       14.72200
O         54.28100       62.21700       14.39800
C         51.13900       61.24900       13.95200
C         51.79600       60.90800       12.64900
C         52.40100       59.66700       12.46700
C         51.80600       61.82500       11.59700
C         53.01600       59.34400       11.25500
C         52.41200       61.50900       10.37800
C         53.02000       60.26900       10.20600
N         52.73100       63.79900       14.78400
C         53.62800       64.91000       14.43000
C         54.68200       65.20200       15.51000
O         55.59600       65.98600       15.28700
C         52.85900       66.21700       14.05800
C         52.13700       66.79900       15.28200
C         51.90800       65.97000       12.88600
C         51.45300       68.13100       15.03700
N         54.54700       64.58700       16.67900
C         55.53400       64.74400       17.73800
C         56.43000       63.51700       17.89600
O         57.10700       63.36300       18.90600
C         54.85300       65.08200       19.06600
C         54.44300       66.53600       19.15700
O         55.28200       67.41700       19.34600
N         53.14800       66.79600       19.03700
N         56.44100       62.65400       16.88700
C         57.25700       61.44000       16.90400
C         58.76400       61.69200       16.75100
O         59.27800       62.74200       17.13900
C         56.76000       60.46600       15.83000
C         55.94900       59.22700       16.24300
C         55.09500       59.45600       17.47000
C         55.10300       58.72600       15.08400
N         59.46700       60.71700       16.17900
C         60.93400       60.74000       16.08300
C         61.47000       59.37100       16.48300
O         60.92800       58.72500       17.40400
N         62.51900       58.91800       15.79200
C         63.08100       57.57600       16.03200
C         64.12100       57.54100       17.17700
O         64.59600       56.46800       17.57300
C         63.65300       56.98700       14.73300
O         64.65900       57.82800       14.18900
N         64.45500       58.71500       17.70900
C         65.38500       58.82200       18.83100
C         64.66700       58.63100       20.18000
O         65.28100       58.78500       21.24200
C         66.10800       60.18300       18.78600
C         67.56700       60.09500       19.22700
C         65.14000       61.37300       18.74800
O         67.84400       59.60300       20.34200
O         63.98300       61.21700       18.29500
O         68.44300       60.53300       18.45500
O         65.55200       62.47600       19.16400
N         63.38000       58.27500       20.12500
C         62.48000       58.28200       21.28800
C         62.78600       57.20900       22.33600
O         62.95000       56.03400       22.00100
C         61.04100       58.13300       20.80600
C         59.98900       58.45800       21.84100
S         58.32800       58.11500       21.24000
C         58.16700       59.29600       19.89500
N         62.84800       57.62200       23.60400
C         63.08900       56.69300       24.71300
C         61.81300       55.96000       25.14100
O         60.69500       56.39000       24.82000
C         63.68700       57.41800       25.91400
O         62.71500       58.21700       26.55400
N         61.98600       54.85800       25.87100
C         60.85400       54.08100       26.35900
C         60.00700       54.90900       27.32500
O         58.77300       54.84700       27.27500
C         61.29800       52.72100       26.96400
C         60.18800       52.08900       27.81000
C         61.71400       51.76700       25.84700
N         60.66400       55.70400       28.17500
C         59.95000       56.63800       29.06800
C         59.01300       57.55900       28.26900
O         57.82100       57.66900       28.59000
C         60.91700       57.45400       29.97500
C         60.20200       58.61600       30.64000
C         61.52100       56.55500       31.03200
N         59.54300       58.18500       27.21600
C         58.73400       59.06500       26.38100
C         57.59500       58.31800       25.67100
O         56.45700       58.79800       25.64600
C         59.59500       59.83500       25.38000
C         58.83800       60.98900       24.73600
C         59.65600       61.77500       23.74300
O         60.79800       61.41900       23.42700
N         59.07500       62.86300       23.23900
N         57.91200       57.15600       25.09700
C         56.91700       56.30300       24.45300
C         55.78300       55.94500       25.39300
O         54.60900       56.04500       25.02200
N         56.13100       55.54300       26.61600
C         55.13400       55.26800       27.65000
C         54.33400       56.50500       28.04000
O         53.14300       56.39800       28.30200
C         55.76800       54.62800       28.88200
C         56.33100       53.20800       28.73200
C         57.06400       52.79300       30.00600
C         55.25000       52.17800       28.35600
N         54.97000       57.67300       28.06400
C         54.23500       58.91200       28.30600
C         53.14900       59.14900       27.26200
O         52.03000       59.54300       27.60000
C         55.16800       60.12000       28.38600
C         55.93700       60.17300       29.68200
O         55.53000       59.58300       30.68600
N         57.05500       60.88400       29.67300
N         53.47800       58.89700       25.99700
C         52.50300       59.01400       24.92600
C         51.36200       58.01400       25.11800
O         50.18500       58.35600       24.92700
C         53.15700       58.81800       23.56200
C         53.87700       60.02900       23.05000
C         55.25200       59.98000       22.80000
C         53.19100       61.21600       22.80500
C         55.94000       61.10200       22.30900
C         53.86600       62.34500       22.31900
C         55.24300       62.28600       22.06700
N         51.71400       56.78400       25.50300
C         50.72400       55.74200       25.73800
C         49.76000       56.15900       26.84500
O         48.54000       56.01800       26.69700
C         51.39400       54.41100       26.05500
C         50.47900       53.18300       26.14200
C         49.51400       53.06600       24.97600
C         51.30800       51.92000       26.24600
N         50.30900       56.69800       27.93500
C         49.50200       57.24100       29.03200
C         48.62200       58.38400       28.56000
O         47.42500       58.42200       28.86500
N         49.22400       59.30000       27.79400
C         48.53300       60.45100       27.20900
C         47.30800       60.07400       26.38000
O         46.32900       60.81400       26.34400
C         49.49500       61.26300       26.36300
N         47.36400       58.92500       25.71100
C         46.27700       58.51000       24.82800
C         45.06000       57.96900       25.58200
O         43.94700       57.96700       25.04700
C         46.76900       57.46500       23.83700
O         46.90700       56.20100       24.46900
N         45.27200       57.50600       26.81100
C         44.21600       56.83100       27.56400
C         42.97200       57.68100       27.85900
O         41.85600       57.20800       27.62800
C         44.76400       56.20100       28.84400
C         45.86800       55.16500       28.66300
C         46.30200       54.65200       30.00200
C         45.41800       54.02400       27.78500
N         43.14500       58.93100       28.35900
C         41.94900       59.74400       28.63800
C         40.94900       59.84600       27.46600
O         39.77700       59.52600       27.64700
C         42.53500       61.11100       29.01100
C         43.86000       60.76800       29.59500
C         44.37700       59.66200       28.72000
N         41.39700       60.25900       26.28000
C         40.47600       60.35200       25.15100
C         39.98800       58.97900       24.71200
O         38.82600       58.83700       24.32800
C         41.03100       61.17500       23.94500
C         39.90600       61.51900       22.95900
C         42.15500       60.44100       23.23200
C         38.66200       62.11700       23.61000
N         40.85800       57.97600       24.78400
C         40.48000       56.62100       24.38900
C         39.24500       56.15800       25.15400
O         38.25500       55.74600       24.55400
C         41.63600       55.65400       24.60300
N         39.28900       56.27800       26.47700
C         38.24900       55.69300       27.31300
C         37.07500       56.57700       27.70000
O         35.95400       56.08900       27.80000
C         38.86600       54.91900       28.47200
C         39.63900       53.72700       27.99900
C         41.01500       53.78400       27.87900
C         38.97800       52.56800       27.58100
C         41.73600       52.68200       27.40600
C         39.69000       51.46800       27.09700
C         41.06800       51.52400       27.01000
N         37.30100       57.87500       27.87700
C         36.16500       58.79600       27.97900
C         35.44600       58.81900       26.62200
O         34.21300       58.87200       26.57500
C         36.55700       60.22600       28.41900
O         37.46400       60.79400       27.46300
C         37.20300       60.20600       29.79500
N         36.21500       58.74500       25.53200
C         35.64400       58.63700       24.19100
C         34.74200       57.42100       24.04200
O         33.59600       57.54500       23.61000
N         35.25500       56.24800       24.41300
C         34.49200       55.00900       24.33900
C         33.17500       55.11200       25.10200
O         32.09700       54.90000       24.53200
C         35.31100       53.82900       24.86700
C         34.60700       52.46300       24.94200
C         34.14800       51.99200       23.58100
C         35.50100       51.42000       25.58800
N         33.25700       55.44800       26.38400
C         32.07500       55.40400       27.24000
C         31.11500       56.55900       27.01000
O         29.89500       56.34400       26.98900
C         32.45700       55.24500       28.71400
C         33.05000       53.90200       29.02500
C         34.42900       53.69600       28.93800
C         32.22800       52.82700       29.36500
C         34.98600       52.44800       29.21500
C         32.76600       51.56900       29.64000
C         34.14300       51.37500       29.57300
N         31.64300       57.77200       26.82100
C         30.76300       58.91000       26.55900
C         30.08000       58.75100       25.19700
O         28.90000       59.06100       25.06400
C         31.48400       60.24700       26.67500
O         32.41200       60.42900       25.62400
N         30.79800       58.23200       24.20300
C         30.20500       57.95300       22.89700
C         28.97700       57.05600       23.00400
O         27.91500       57.37700       22.46100
N         29.12400       55.93000       23.70700
C         28.01300       55.01900       23.96900
C         26.88000       55.72300       24.73300
O         25.71400       55.67700       24.30100
C         28.49500       53.74500       24.71500
C         29.33200       52.88700       23.77000
C         27.31900       52.94400       25.25800
C         30.19900       51.88800       24.45200
N         27.22800       56.38600       25.84300
C         26.24100       57.06200       26.68400
C         25.50700       58.14500       25.89700
O         24.27600       58.26200       25.98600
C         26.89800       57.64400       27.94500
N         26.25900       58.91600       25.11300
C         25.68800       59.99400       24.31700
C         24.74700       59.45900       23.24200
O         23.69700       60.05400       22.98000
C         26.78600       60.82200       23.67100
C         26.30900       62.13800       23.11000
C         27.45900       63.02600       22.72400
O         28.45300       62.57100       22.14100
N         27.34400       64.30400       23.05200
N         25.12300       58.33600       22.63200
C         24.28600       57.67500       21.65300
C         22.92400       57.30600       22.20800
O         21.90600       57.46500       21.52300
N         22.90400       56.81000       23.44500
C         21.65500       56.48400       24.11800
C         20.76900       57.71100       24.30300
O         19.56300       57.63400       24.07200
C         21.91800       55.81800       25.46000
C         22.36700       54.37600       25.35900
C         22.86900       53.85800       26.69700
C         23.25400       52.40400       26.56800
N         24.24400       51.97800       27.59700
N         21.35400       58.83600       24.71200
C         20.58200       60.07100       24.90200
C         20.10000       60.59900       23.55200
O         18.94700       61.01800       23.42400
C         21.37100       61.17900       25.66400
C         20.45800       62.30300       26.05800
C         21.99800       60.62800       26.90000
N         20.97700       60.57200       22.54900
C         20.61800       61.04100       21.21800
C         19.46200       60.20000       20.67000
O         18.47500       60.73900       20.16700
C         21.82100       61.02000       20.28600
N         19.57000       58.88000       20.81100
C         18.49000       57.96500       20.41800
C         17.16300       58.30900       21.11900
O         16.09500       58.30200       20.49600
C         18.88400       56.52400       20.68100
N         17.23300       58.61700       22.41000
C         16.05100       59.05200       23.15700
C         15.50100       60.38000       22.59700
O         14.27800       60.58300       22.54900
C         16.35900       59.15800       24.64100
N         16.40400       61.26000       22.15400
C         16.02600       62.52200       21.53800
C         15.20100       62.34700       20.27700
O         14.34100       63.17900       19.97500
N         15.45500       61.26400       19.54100
C         14.67100       60.93100       18.34100
C         13.16300       60.86600       18.65500
O         12.33600       61.24500       17.82800
C         15.18100       59.60400       17.65600
C         16.60500       59.78100       17.09100
C         14.21100       59.10100       16.56500
C         16.70600       60.63400       15.81700
N         12.81400       60.40900       19.85600
C         11.40800       60.29500       20.24700
C         10.79600       61.66300       20.55000
O          9.58900       61.84200       20.37400
C         11.20600       59.31800       21.42200
C         12.08300       58.03500       21.38600
C         10.88100       57.88900       21.02500
C         12.12400       57.31700       20.02500
C          9.59300       57.76900       20.23300
O         11.10600       57.15400       19.35800
O          8.49700       58.02500       20.74100
N         13.31500       56.87500       19.62600
N          9.72100       57.36600       18.97700
N         11.61700       62.62100       20.99600
C         11.15100       64.01100       21.13500
C         10.81800       64.50400       19.73700
O          9.75600       65.06900       19.49800
C         12.19900       64.95800       21.80000
C         12.49000       64.53400       23.24500
C         11.72700       66.41100       21.75000
C         13.69400       65.20300       23.86300
N         11.73600       64.25600       18.81400
C         11.56100       64.60700       17.42000
C         10.28600       63.99400       16.83500
O          9.56500       64.64600       16.08300
C         12.78300       64.13800       16.64600
C         13.03300       64.65300       15.24400
C         12.98400       66.16000       15.23900
C         14.38900       64.16900       14.81900
N         10.00800       62.74300       17.20000
C          8.82300       62.02100       16.72400
C          7.52100       62.64600       17.21600
O          6.57100       62.75200       16.46300
C          8.89200       60.55800       17.14400
N          7.48800       63.06100       18.47800
C          6.24900       63.48800       19.13000
C          6.09100       65.00700       19.18500
O          4.98400       65.52100       19.07100
C          6.18400       62.92100       20.55800
C          6.03200       61.40900       20.64800
C          4.57100       61.00900       20.54500
C          4.34300       59.59800       21.04800
N          4.95600       58.61600       20.11000
N          7.19700       65.71500       19.39100
C          7.18600       67.16700       19.55400
C          8.32300       67.76900       18.74200
O          9.28500       68.29300       19.31600
C          7.37000       67.54800       21.02400
C          6.37500       66.94100       21.98600
C          5.20000       67.84300       22.20800
C          4.29500       67.26400       23.25200
N          3.11000       68.13300       23.41100
N          8.21700       67.70600       17.40000
C          9.33200       68.14100       16.54700
C          9.78400       69.58900       16.80000
O         10.95200       69.91800       16.60100
C          8.77900       67.97800       15.12500
C          7.30200       67.86600       15.28500
C          7.06400       67.24300       16.60400
N          8.87100       70.43700       17.25300
C          9.20600       71.82600       17.54400
C         10.12700       71.97200       18.76700
O         10.66000       73.05100       19.01400
C          7.93700       72.69000       17.67300
C          7.08000       72.44500       18.93200
C          6.19400       71.17400       18.88600
O          5.36500       71.01000       19.81600
O          6.31000       70.34600       17.94300
N         10.32000       70.88700       19.51300
C         11.16800       70.91700       20.70400
C         12.45700       70.12200       20.52300
O         13.12400       69.76200       21.50600
C         10.40200       70.39200       21.91400
C          9.30500       71.29400       22.36300
N          9.53900       72.43200       23.10100
C          7.96600       71.22900       22.18300
C          8.39200       73.03200       23.35500
N          7.42200       72.32300       22.80900
N         12.80900       69.86100       19.26600
C         13.97000       69.04100       18.93200
C         15.29500       69.54300       19.52600
O         16.16600       68.73400       19.85800
C         14.08400       68.87800       17.43000
N         15.44400       70.85900       19.66300
C         16.63300       71.44500       20.28800
C         16.86300       70.92200       21.71400
O         18.01100       70.72300       22.13400
C         16.55700       72.98200       20.29900
O         16.36400       73.44800       18.96100
C         17.83500       73.61500       20.85700
N         15.77500       70.68700       22.44400
C         15.86100       70.13100       23.78800
C         16.57900       68.77800       23.78700
O         17.44800       68.53100       24.62800
C         14.47400       70.02700       24.41600
C         13.86900       71.37200       24.72200
C         12.46200       71.22900       25.27000
C         11.90300       72.56200       25.69700
N         11.86900       73.52200       24.57800
N         16.22100       67.92400       22.83000
C         16.88000       66.63900       22.64400
C         18.37300       66.78700       22.36800
O         19.19300       66.02800       22.90500
N         18.72800       67.76800       21.53700
C         20.12600       68.06200       21.25200
C         20.87400       68.45900       22.53300
O         21.96100       67.94200       22.80400
C         20.26300       69.15200       20.16100
C         19.76900       68.60500       18.81700
C         21.71800       69.63700       20.03400
C         19.55500       69.66000       17.74900
N         20.27800       69.35000       23.32400
C         20.90100       69.80100       24.56100
C         21.10900       68.65700       25.56100
O         22.19800       68.52800       26.11900
C         20.14200       71.00000       25.18500
C         20.25800       72.22400       24.26700
C         20.67200       71.33400       26.58600
C         19.27900       73.32700       24.57400
N         20.09400       67.81700       25.77200
C         20.24800       66.64200       26.63900
C         21.45300       65.80100       26.21300
O         22.26900       65.40300       27.04200
C         19.00000       65.75200       26.62600
C         17.80900       66.34800       27.32400
C         16.54300       66.24900       26.75400
C         17.94200       67.00000       28.55300
C         15.42400       66.79600       27.39400
C         16.82500       67.55200       29.19700
C         15.56300       67.44700       28.61400
N         21.56000       65.53700       24.91300
C         22.66500       64.75500       24.37800
C         23.99800       65.49900       24.51800
O         25.02000       64.89100       24.86200
C         22.39700       64.39800       22.93900
N         23.97100       66.80900       24.27300
C         25.15600       67.64700       24.37200
C         25.78200       67.60300       25.76200
O         26.99000       67.70500       25.88000
C         24.82900       69.07800       23.98800
N         24.97400       67.43600       26.80800
C         25.50100       67.39300       28.17700
C         26.50400       66.26900       28.39500
O         27.41000       66.39600       29.21200
C         24.37800       67.29600       29.21000
C         23.44100       68.49400       29.25000
S         24.23500       70.11100       29.49000
C         24.50300       70.69400       27.79500
N         26.34400       65.17300       27.65900
C         27.27400       64.04800       27.75200
C         28.61200       64.40400       27.08100
O         29.66600       63.90000       27.47300
C         26.66700       62.74200       27.15900
C         27.59300       61.54500       27.39500
C         25.30200       62.47100       27.77000
N         28.56000       65.30200       26.09900
C         29.74500       65.75900       25.38100
C         30.87400       66.22800       26.30200
O         32.04700       65.98200       26.01400
C         29.37200       66.86700       24.38800
C         30.46500       67.23500       23.40000
C         30.78400       66.11800       22.39500
O         30.01400       65.13500       22.28800
O         31.81300       66.22600       21.69500
N         30.51700       66.89500       27.39900
C         31.48500       67.42500       28.36800
C         32.64600       66.46100       28.66800
O         33.81900       66.87100       28.71100
C         30.79300       67.76400       29.69100
O         29.62400       68.52700       29.41600
C         31.70600       68.54800       30.62100
N         32.31900       65.18300       28.84600
C         33.27600       64.22600       29.38200
C         34.24200       63.73600       28.32500
O         35.38000       63.38400       28.63500
C         32.53000       63.13500       30.17400
C         31.61600       63.86500       31.10800
C         30.26000       64.01800       30.81700
C         32.14800       64.56200       32.19600
C         29.43900       64.78000       31.63600
C         31.34600       65.33300       33.02100
C         29.99600       65.43600       32.73900
O         29.21900       66.19600       33.56000
N         33.80100       63.76800       27.06800
C         34.70400       63.58700       25.93600
C         35.64500       64.80000       25.80100
O         36.84300       64.63400       25.57100
C         33.91900       63.35500       24.65500
N         35.11400       66.01200       25.96000
C         35.93600       67.21400       25.87000
C         36.99500       67.24200       26.97900
O         38.17300       67.51000       26.70400
C         35.07800       68.50800       25.84500
C         34.27900       68.58000       24.53700
C         35.95300       69.75600       25.99300
C         33.12100       69.59100       24.55900
N         36.59000       66.94700       28.21500
C         37.53800       66.89600       29.33300
C         38.62000       65.84800       29.07800
O         39.81400       66.11000       29.30700
C         36.82800       66.64100       30.66600
C         35.86600       67.71600       31.18800
C         35.23800       67.25700       32.50300
C         36.52300       69.10000       31.33900
N         38.20000       64.68000       28.58100
C         39.11800       63.61900       28.16900
C         40.08300       64.08900       27.08900
O         41.29200       63.83400       27.15800
N         39.54800       64.79200       26.09700
C         40.35200       65.35800       25.02200
C         41.38000       66.36500       25.54900
O         42.54800       66.31300       25.16400
C         39.44400       66.00100       23.96100
C         40.19200       66.68600       22.83900
C         40.81400       65.94300       21.84100
C         40.25800       68.07600       22.77500
C         41.49900       66.57200       20.79900
C         40.94400       68.72000       21.73800
C         41.56400       67.96500       20.75000
N         40.94300       67.26900       26.42700
C         41.82400       68.31900       26.95600
C         43.01000       67.70800       27.73200
O         44.15700       68.09500       27.51600
C         41.03700       69.39300       27.78100
C         41.96300       70.27800       28.58800
C         40.17800       70.24800       26.85600
N         42.73300       66.73000       28.59400
C         43.79000       66.05400       29.35900
C         44.75900       65.32600       28.43600
O         45.97100       65.45900       28.58800
C         43.21400       65.09500       30.44500
C         42.50900       65.90000       31.55100
C         44.30700       64.19500       31.03500
C         43.39600       66.94300       32.29500
N         44.22500       64.57200       27.47600
C         45.05500       63.91300       26.45900
C         45.91600       64.90900       25.70700
O         47.10200       64.66800       25.50200
C         44.21200       63.11100       25.46300
O         43.89700       61.81100       25.96400
N         45.32100       66.03500       25.32200
C         46.03200       67.09600       24.61400
C         47.23700       67.60500       25.41100
O         48.36400       67.64200       24.88800
C         45.07400       68.24300       24.27000
C         45.64700       69.24300       23.30600
C         45.46900       69.08700       21.92800
C         46.35700       70.35100       23.77000
C         46.00300       70.01300       21.02200
C         46.89000       71.27500       22.87600
C         46.71600       71.10300       21.49700
N         46.99600       67.98600       26.67000
C         48.05200       68.46600       27.55300
C         49.15900       67.42800       27.73100
O         50.35000       67.75300       27.67700
C         47.48800       68.86700       28.91300
C         46.59200       70.10200       28.98500
C         46.07000       70.25800       30.40400
C         47.31800       71.37100       28.51700
N         48.76000       66.17700       27.92900
C         49.71500       65.09900       28.14800
C         50.57200       64.77800       26.92500
O         51.75100       64.44500       27.07200
C         49.00700       63.84500       28.65800
C         48.61000       63.89200       30.13400
C         47.81300       62.65200       30.49600
C         49.83800       64.04000       31.03900
N         49.98000       64.88000       25.73000
C         50.70900       64.66300       24.47300
C         51.77300       65.73700       24.28800
O         52.91900       65.42800       23.98200
C         49.76500       64.60500       23.24200
C         50.56800       64.65700       21.93800
C         48.92800       63.34900       23.29000
N         51.39400       66.99400       24.49700
C         52.34100       68.10600       24.40700
C         53.45000       68.01100       25.44500
O         54.52000       68.55900       25.25100
C         51.62200       69.45000       24.55500
C         50.65000       69.91100       23.46500
C         50.26600       71.35000       23.73100
C         51.23700       69.76600       22.06300
N         53.19400       67.30800       26.54100
C         54.15000       67.22600       27.63900
C         54.85900       65.87000       27.74400
O         55.69600       65.66000       28.61600
C         53.46200       67.61600       28.95800
C         54.44300       67.86800       30.08400
C         53.33800       69.12500       29.13100
O         54.56400       67.05700       31.00600
O         53.98300       69.71300       29.99600
N         55.15400       68.98900       30.01500
N         52.51400       69.75600       28.30200
N         54.54300       64.96000       26.83000
C         55.13700       63.61800       26.83700
C         56.65300       63.66400       26.66900
O         57.37900       62.86600       27.27200
C         54.51800       62.74900       25.76300
O         57.18500       64.49900       25.92800
N         62.21600       46.43800       32.86900
C         61.24600       47.56900       32.75600
C         61.13500       48.34000       34.06600
O         61.40300       49.54800       34.11700
C         59.85600       47.06700       32.33400
C         58.72900       48.09700       32.48700
S         58.82900       49.48200       31.33500
C         57.55000       49.03100       30.16100
N         60.72000       47.63600       35.11600
C         60.54500       48.24400       36.42000
C         61.88500       48.75900       36.92900
O         61.96400       49.85000       37.50200
C         59.93500       47.24400       37.39800
C         59.09000       47.87400       38.49000
S         57.90600       49.10400       37.88900
C         58.68600       50.61900       38.46600
N         62.93300       47.97600       36.68100
C         64.29400       48.36800       37.00600
C         64.73000       49.59200       36.19400
O         65.44000       50.46300       36.70700
C         65.24200       47.19900       36.75900
C         66.56000       47.35800       37.48300
O         67.44000       48.09900       36.98600
O         66.71700       46.73000       38.55100
N         64.29400       49.64900       34.93500
C         64.60100       50.77100       34.04100
C         63.93800       52.07300       34.50700
O         64.59900       53.11100       34.58500
C         64.21300       50.42600       32.59400
C         64.07600       51.60700       31.64700
C         65.20000       52.23200       31.10500
C         62.81600       52.08600       31.27900
C         65.07300       53.31000       30.22800
C         62.68000       53.16300       30.40500
C         63.81100       53.76900       29.88400
O         63.67700       54.83000       29.01800
N         62.64100       52.00700       34.82000
C         61.89900       53.16900       35.30700
C         62.48800       53.70600       36.60900
O         62.64000       54.91700       36.77800
C         60.41500       52.83800       35.48400
C         59.61800       52.53000       34.21600
C         58.20000       52.12200       34.57800
C         59.61000       53.70600       33.24000
N         62.82500       52.79400       37.51600
C         63.46800       53.14600       38.78200
C         64.78100       53.91400       38.54500
O         64.92900       55.05400       39.00200
C         63.67900       51.88000       39.68200
C         62.34000       51.42500       40.28600
C         64.71900       52.13800       40.77900
C         62.25200       49.93300       40.59500
N         65.70000       53.30000       37.79400
C         67.05700       53.83400       37.60500
C         67.15800       55.03000       36.64100
O         68.19500       55.69000       36.59200
C         68.07500       52.72100       37.18600
O         67.57600       52.00500       36.05000
C         68.32300       51.73700       38.33000
N         66.09600       55.30700       35.88400
C         66.09400       56.41800       34.91900
C         65.12300       57.52100       35.31500
O         64.78000       58.37600       34.49000
C         65.75200       55.93000       33.50500
C         66.67900       54.86000       32.96400
C         68.11200       55.31100       32.88500
O         68.42100       56.32800       32.26600
N         69.00200       54.55400       33.50900
N         64.69400       57.50100       36.57700
C         63.62500       58.38500       37.08000
C         62.38300       58.48700       36.16200
O         61.91800       59.58700       35.81800
C         64.17500       59.77100       37.45900
C         64.90700       59.75700       38.78600
O         66.05100       59.30900       38.87100
N         64.24900       60.24300       39.83200
N         61.85100       57.33100       35.77200
C         60.66700       57.29000       34.93400
C         59.38300       57.28600       35.74400
O         58.37500       56.73900       35.29200
N         59.41100       57.89400       36.93400
C         58.22400       58.00900       37.78700
C         57.10400       58.80600       37.13300
O         55.92300       58.60300       37.43700
N         57.49400       59.71700       36.23700
C         56.59100       60.48200       35.37200
C         55.48800       59.60600       34.75100
O         54.32700       60.02800       34.70200
C         57.43000       61.20600       34.30000
C         56.69300       62.08200       33.29300
C         56.62200       61.91000       33.18800
S         57.80000       63.28100       32.48300
S         55.58300       63.29900       33.70800
C         59.20500       62.28000       31.97500
C         56.78000       64.62100       33.84500
N         55.84300       58.39200       34.31300
C         54.87500       57.47500       33.68900
C         53.68700       57.20100       34.61200
O         52.54400       57.19100       34.15300
C         55.52200       56.14500       33.15300
C         56.71300       56.44500       32.24800
C         54.47900       55.22000       32.55700
C         55.90800       55.19800       34.28300
C         56.59800       56.45500       32.12200
N         53.95800       57.01500       35.90700
C         52.90900       56.74200       36.89600
C         52.05200       57.95400       37.19200
O         50.85600       57.80600       37.46100
C         53.49700       56.15200       38.17500
C         54.19000       54.84700       37.95200
C         55.58200       54.76200       38.00800
C         53.45700       53.70100       37.62900
C         56.23700       53.54700       37.76900
C         54.10300       52.48800       37.39100
C         55.49600       52.41300       37.45800
N         52.66300       59.14200       37.14000
C         51.94500       60.40700       37.29900
C         51.02500       60.66800       36.10600
O         49.92000       61.19200       36.27700
C         52.91300       61.54800       37.47600
N         51.48500       60.30400       34.90600
C         50.66700       60.41400       33.69900
C         49.48200       59.47000       33.85000
O         48.33400       59.86600       33.64300
C         51.47000       60.09700       32.40700
C         50.56500       60.06100       31.18700
C         52.58000       61.12200       32.19400
N         49.76300       58.22900       34.23900
C         48.71600       57.24200       34.48700
C         47.75100       57.71800       35.55900
O         46.54900       57.42100       35.49100
C         49.32300       55.89800       34.89000
C         48.41200       54.67000       34.97200
C         49.93500       55.05700       33.77100
C         47.89800       54.28800       33.58900
C         50.57600       53.81900       34.36100
C         49.13600       53.49400       35.61600
C         48.88300       54.67800       32.74200
N         48.28300       58.45200       36.54400
C         47.47800       59.02800       37.62300
C         46.44000       59.99100       37.04700
O         45.25600       59.91000       37.38200
C         48.36800       59.73300       38.62800
N         46.89300       60.88400       36.16700
C         46.00900       61.82500       35.49800
C         44.95400       61.11000       34.66000
O         43.77200       61.46700       34.71700
C         46.80700       62.79100       34.64300
C         47.62500       63.74100       35.46300
S         48.64900       64.83000       34.47300
C         47.39400       65.58200       33.43300
N         45.37600       60.09600       33.90300
C         44.45100       59.29200       33.10500
C         43.37300       58.66700       33.99500
O         42.18100       58.79500       33.70800
C         45.19400       58.23400       32.32100
N         43.79200       58.03100       35.08900
C         42.87200       57.38700       36.03300
C         41.82900       58.34500       36.64200
O         40.62100       58.07000       36.59400
C         43.64000       56.65700       37.15000
O         44.66800       57.50400       37.67000
O         44.58700       55.76500       36.55900
C         44.26500       55.39100       36.62400
C         42.70800       55.88000       38.06100
N         42.29200       59.45700       37.21200
C         41.40000       60.48700       37.73400
C         40.35000       60.92700       36.69700
O         39.15200       61.00400       37.00700
C         42.20600       61.68300       38.21800
N         40.80600       61.19700       35.47300
C         39.93400       61.65400       34.39100
C         38.95500       60.56800       33.90300
O         37.73800       60.80300       33.82300
C         40.76700       62.14400       33.19600
O         41.75600       63.06700       33.65800
C         39.89100       62.82600       32.15500
N         39.49200       59.39100       33.58300
C         38.71200       58.33800       32.94500
C         37.53900       57.86700       33.80700
O         36.38700       57.91200       33.36800
C         39.60000       57.14500       32.49700
C         40.48600       57.57100       31.31500
C         38.74100       55.91400       32.14900
C         41.76100       56.75400       31.15700
N         37.82100       57.43300       35.03000
C         36.78900       56.78100       35.82400
C         35.70300       57.72700       36.33000
O         34.51600       57.37500       36.31600
C         37.41500       55.92300       36.91900
C         38.19900       54.77300       36.37200
C         39.58000       54.85400       36.24800
C         37.54400       53.62400       35.91600
C         40.30700       53.78500       35.71200
C         38.25600       52.55200       35.37000
C         39.63900       52.62500       35.26700
N         36.09500       58.93700       36.73300
C         35.11500       59.96100       37.09500
C         34.30600       60.35400       35.85100
O         33.08600       60.52500       35.92200
C         35.79500       61.17500       37.70200
O         36.65200       61.77000       36.74500
N         34.98600       60.47700       34.71300
C         34.32700       60.77800       33.44500
C         33.29100       59.73100       33.04800
O         32.18900       60.07400       32.58700
N         33.63600       58.45300       33.22400
C         32.71000       57.36300       32.91400
C         31.49200       57.45200       33.84000
O         30.34800       57.30700       33.38200
C         33.36600       55.97300       33.02600
C         34.40500       55.76700       31.92800
C         32.31400       54.86400       32.96200
C         35.31100       54.55500       32.18200
N         31.73800       57.70300       35.12800
C         30.65200       57.85900       36.09400
C         29.66300       58.93200       35.66500
O         28.45100       58.70100       35.64900
N         30.18600       60.10100       35.30200
C         29.34900       61.19900       34.85600
C         28.68300       60.86500       33.53500
O         27.48200       61.07900       33.39100
C         30.15100       62.49600       34.74100
O         30.31400       63.10900       36.00100
N         29.44900       60.32800       32.58200
C         28.89400       60.00700       31.26400
C         27.66200       59.10200       31.41700
O         26.60700       59.35700       30.83000
C         29.95400       59.36700       30.36600
N         27.79800       58.07000       32.24800
C         26.70300       57.14100       32.50900
C         25.55600       57.80200       33.26400
O         24.40000       57.67000       32.86600
C         27.20100       55.90000       33.24800
C         27.90400       54.93800       32.34400
C         28.49800       53.81300       33.12500
C         28.82400       52.65200       32.20600
N         27.57800       52.03400       31.69000
N         25.87700       58.52600       34.33400
C         24.86900       59.18500       35.15900
C         24.09700       60.25700       34.41300
O         22.85800       60.25900       34.42000
N         24.83000       61.17200       33.77500
C         24.24000       62.22000       32.94000
C         23.45300       61.58000       31.77900
O         22.35300       62.03400       31.43800
C         25.33400       63.20100       32.40000
C         24.77700       64.16300       31.36000
C         25.97800       63.96300       33.53600
N         24.02100       60.52300       31.19500
C         23.37900       59.79600       30.11400
C         22.03800       59.21800       30.52700
O         21.01600       59.44500       29.86300
N         22.03600       58.47400       31.63000
C         20.81200       57.88700       32.14700
C         19.72300       58.93000       32.44700
O         18.56400       58.76400       32.04900
C         21.09400       57.07900       33.40800
C         19.81800       56.48700       33.99300
S         20.07100       55.39300       35.37700
C         20.58800       53.87900       34.54000
N         20.09700       59.99400       33.15300
C         19.15600       61.05800       33.48200
C         18.66000       61.74300       32.20300
O         17.46500       62.02600       32.07300
C         19.77600       62.07500       34.45600
O         20.32800       61.37400       35.57200
C         18.73800       63.03600       34.97000
N         19.57800       61.97500       31.26100
C         19.23500       62.49900       29.93800
C         18.17200       61.68200       29.21200
O         17.26200       62.24500       28.60500
N         18.28200       60.35400       29.27200
C         17.27400       59.47400       28.66900
C         15.90400       59.69600       29.29600
O         14.90500       59.82000       28.58500
C         17.68200       58.01100       28.78500
C         18.95900       57.67200       28.03000
C         19.43300       56.24500       28.29300
O         18.67400       55.29600       28.00000
O         20.56500       56.07300       28.78900
N         15.86700       59.76200       30.62700
C         14.62100       59.95700       31.35700
C         14.06000       61.34100       31.04400
O         12.84100       61.50900       30.87200
C         14.85400       59.80300       32.84100
N         14.95300       62.33200       30.96600
C         14.55100       63.71400       30.69600
C         13.96000       63.82600       29.29000
O         12.93600       64.48400       29.09400
C         15.72400       64.66500       30.87800
N         14.59500       63.15600       28.32600
C         14.10400       63.11200       26.95200
C         12.70200       62.50100       26.89200
O         11.80400       63.04500       26.24300
C         15.06500       62.34400       26.07400
N         12.52000       61.38100       27.58800
C         11.22300       60.70900       27.66500
C         10.13600       61.65000       28.20800
O          9.07300       61.77300       27.60300
C         11.32200       59.42900       28.48900
N         10.41400       62.33300       29.31900
C          9.49400       63.33100       29.84600
C          9.18400       64.45000       28.83900
O          8.04700       64.91500       28.74800
C         10.04200       63.94200       31.13400
C          9.21500       65.07900       31.76400
C          7.80100       64.63300       32.16400
C          9.92800       65.67500       32.95100
N         10.19700       64.87600       28.09000
C         10.06200       65.98800       27.14300
C          9.12000       65.67300       25.97800
O          8.52000       66.58800       25.40300
C         11.44500       66.44700       26.60800
O         12.27400       66.84000       27.70800
C         11.31300       67.62700       25.65600
N          8.97800       64.38800       25.64500
C          8.11400       63.97600       24.53700
C          6.64600       64.27900       24.83200
O          5.82900       64.36700       23.91300
C          8.24800       62.47500       24.18700
O          7.62700       61.68900       25.20900
C          9.71700       62.05600       24.02000
N          6.29800       64.43100       26.10600
C          4.92500       64.79400       26.43800
C          4.79600       66.12200       27.20000
O          3.80400       66.83000       27.03400
C          4.20700       63.65500       27.16300
O          4.51100       63.66100       28.54100
N          5.78600       66.46200       28.02300
C          5.74800       67.72800       28.76600
C          7.03100       68.55100       28.57500
O          7.85300       68.65000       29.48700
C          5.47200       67.48700       30.25400
C          4.17000       66.76600       30.56600
C          4.17300       66.18600       31.96300
O          4.06300       66.91000       32.94200
N          4.31100       64.86200       32.05900
N          7.20000       69.15900       27.38500
C          8.43800       69.88100       27.08200
C          8.64700       71.12400       27.94800
O          9.76900       71.60900       28.07600
C          8.27000       70.27000       25.60400
C          6.81900       70.27000       25.36800
C          6.25100       69.20700       26.25500
N          7.58300       71.63000       28.54900
C          7.68900       72.84300       29.36300
C          8.50700       72.64600       30.65900
O          8.88800       73.61100       31.31500
C          6.29800       73.42500       29.65600
C          5.44100       72.61200       30.63800
C          4.74400       71.40500       30.00700
O          4.17500       70.59600       30.78200
O          4.76000       71.26700       28.75400
N          8.78800       71.39400       31.00700
C          9.53000       71.07400       32.22000
C         11.02500       70.89900       31.94400
O         11.79000       70.42500       32.79300
C          8.92300       69.83500       32.87400
C          7.53400       70.11500       33.40000
C          6.81600       68.87200       33.80100
C          5.49100       69.22700       34.42400
N          4.91000       68.05500       35.12700
N         11.43200       71.32500       30.75100
C         12.79800       71.17500       30.26500
C         13.88300       71.69700       31.22000
O         14.81900       70.96500       31.56300
C         12.91500       71.84000       28.89500
C         14.31000       71.87100       28.34500
C         14.95300       70.69300       27.97000
C         14.97600       73.08600       28.18900
C         16.24200       70.72500       27.44600
C         16.26400       73.13100       27.67700
C         16.90000       71.94900       27.29900
N         13.76000       72.95500       31.63600
C         14.76600       73.58900       32.48800
C         15.04000       72.81800       33.76800
O         16.19700       72.61500       34.15500
N         13.96700       72.38700       34.42600
C         14.07000       71.62300       35.66300
C         14.69400       70.25400       35.37800
O         15.54700       69.80300       36.13400
C         12.70200       71.48700       36.35300
C         11.90500       72.80300       36.52800
C         12.18100       72.77100       37.01000
C         10.88500       73.06900       35.41100
C         12.80200       73.05200       38.36600
O          9.68700       72.83500       35.58500
O         13.98800       73.35400       38.47600
N         11.35600       73.56800       34.27200
N         11.99400       72.97100       39.40300
N         14.28900       69.62200       34.27300
C         14.85400       68.34700       33.84800
C         16.35000       68.47100       33.59400
O         17.12400       67.56500       33.93100
C         14.15100       67.84800       32.59800
N         16.74900       69.60000       33.00500
C         18.14700       69.87400       32.70800
C         18.99700       69.96400       33.97800
O         20.09500       69.41300       34.02500
C         18.26300       71.15000       31.88800
C         19.56100       71.40200       31.13200
C         19.99100       70.16200       30.35600
C         19.37800       72.60700       30.20400
N         18.48000       70.63800       35.00700
C         19.17400       70.73800       36.29800
C         19.42400       69.34100       36.87600
O         20.54800       69.01800       37.30200
C         18.40300       71.61500       37.31600
C         18.40300       73.07200       36.86100
C         19.01600       71.49500       38.71800
C         17.34800       73.90400       37.51900
N         18.38900       68.50200       36.86700
C         18.52900       67.13600       37.34900
C         19.63000       66.39500       36.59100
O         20.42900       65.69000       37.21200
C         17.19700       66.39500       37.27400
C         16.20000       66.67200       38.39800
C         14.82400       66.16400       38.03100
C         16.66500       66.04100       39.70400
N         19.69200       66.58800       35.26700
C         20.71100       65.94900       34.42600
C         22.13800       66.39600       34.74600
O         23.08400       65.63800       34.58100
C         20.41800       66.17600       32.95000
C         21.16400       65.22200       32.05800
C         21.17200       65.64100       30.61100
O         20.67700       66.70900       30.24900
N         21.74000       64.79200       29.76300
N         22.28100       67.62600       35.21700
C         23.59100       68.16900       35.56400
C         24.19200       67.60900       36.85100
O         25.40500       67.53700       36.97000
C         23.54000       69.70300       35.62800
C         23.31400       70.45900       34.30800
C         23.47300       71.96300       34.53200
C         24.22200       69.96000       33.14700
N         23.35300       67.21100       37.80800
C         23.83100       66.62500       39.08500
C         24.89200       65.49400       38.96700
O         25.97600       65.59000       39.56400
C         22.65100       66.20200       39.96700
C         22.00600       67.22400       40.90800
C         22.34600       68.69900       40.59400
C         20.49800       66.99800       40.93400
N         24.61500       64.43700       38.17200
C         25.65900       63.41200       38.02300
C         26.85200       63.88900       37.19400
O         27.83600       63.16200       37.05700
C         24.94300       62.26600       37.29600
C         23.50700       62.63600       37.26000
C         23.41600       64.11100       37.38100
N         26.75900       65.10400       36.65800
C         27.79300       65.67800       35.82400
C         28.98400       66.27200       36.54200
O         30.00200       66.55100       35.90400
N         28.87600       66.45600       37.85700
C         29.96100       67.07400       38.64500
C         31.16300       66.13300       38.84500
O         32.31200       66.59300       38.86500
C         29.47300       67.59700       40.02900
O         28.82100       66.52800       40.72700
C         28.51800       68.77000       39.87500
N         30.89500       64.83000       38.97500
C         31.93800       63.82200       39.19800
C         33.13000       63.93800       38.24400
O         34.28100       63.97800       38.67500
C         31.34100       62.41700       39.10700
C         30.72500       61.91200       40.39300
C         29.34600       62.47100       40.66400
O         28.91000       63.45600       40.04200
N         28.64600       61.85700       41.61500
N         32.84200       63.99100       36.94800
C         33.87500       64.10600       35.92700
C         34.65800       65.40700       36.02400
O         35.84700       65.45300       35.68400
N         33.99800       66.46600       36.48200
C         34.67800       67.74100       36.64700
C         35.67500       67.68700       37.80100
O         36.78000       68.23700       37.68900
C         33.68800       68.89500       36.83100
C         32.84800       69.29100       35.60500
C         31.66800       70.19200       36.01000
C         33.69800       69.96500       34.53200
N         35.29700       67.02100       38.89900
C         36.22000       66.79400       40.02000
C         37.47600       66.03900       39.57400
O         38.60500       66.43000       39.92400
C         35.55000       66.00100       41.13500
C         34.36700       66.66100       41.78500
C         33.28600       65.88900       42.21600
C         34.32500       68.04700       41.98900
C         32.19300       66.46800       42.82700
C         33.22800       68.64500       42.59900
C         32.16600       67.84500       43.01600
O         31.07200       68.39600       43.62400
N         37.26200       64.96400       38.80700
C         38.34000       64.13500       38.27500
C         39.26500       64.94300       37.39000
O         40.49100       64.85800       37.51300
N         38.67200       65.74600       36.50900
C         39.42800       66.65100       35.65600
C         40.29500       67.60400       36.49300
O         41.49300       67.76400       36.22100
C         38.48300       67.43000       34.73100
C         39.18200       68.42100       33.84000
C         39.76300       68.01100       32.63600
C         39.26800       69.77300       34.20900
C         40.41300       68.93600       31.81300
C         39.91800       70.70800       33.39600
C         40.49000       70.29400       32.19900
N         39.68600       68.22400       37.50600
C         40.40100       69.14600       38.40400
C         41.59000       68.44300       39.08200
O         42.70100       68.97700       39.09000
C         39.44800       69.83700       39.43600
C         40.22200       70.54900       40.52500
C         38.53600       70.81800       38.73500
N         41.36400       67.23200       39.60200
C         42.45100       66.44300       40.19700
C         43.57100       66.15400       39.18300
O         44.75400       66.30000       39.51100
C         41.94100       65.13600       40.86900
C         41.12700       65.44900       42.13800
C         43.10400       64.18700       41.19100
C         41.86300       66.26600       43.17900
N         43.19000       65.78400       37.95700
C         44.14300       65.52300       36.88100
C         44.99200       66.75100       36.60700
O         46.21900       66.65900       36.48800
C         43.42100       65.10600       35.62800
N         44.33600       67.90700       36.53300
C         45.02100       69.16900       36.26100
C         45.94500       69.58300       37.40000
O         46.99700       70.19300       37.16000
C         44.01300       70.27700       35.96700
C         44.64100       71.52800       35.42500
C         45.04800       71.59700       34.08700
C         44.83900       72.63300       36.25100
C         45.64000       72.75400       33.57900
C         45.43400       73.80100       35.75600
C         45.83400       73.86200       34.42000
N         45.54900       69.24200       38.62800
C         46.35600       69.52700       39.81600
C         47.62600       68.68700       39.84100
O         48.70400       69.18600       40.17500
C         45.54500       69.32800       41.10200
C         46.10900       69.93200       42.39600
C         44.50100       70.40500       41.41800
C         45.93400       71.45400       42.42800
C         43.40400       69.81100       42.26900
C         45.44900       69.27900       43.59600
C         45.11600       71.63300       42.08700
N         47.49300       67.41300       39.47800
C         48.66900       66.57400       39.23500
C         49.54100       67.20500       38.14400
O         50.74300       67.37700       38.34400
C         48.30700       65.11800       38.85600
C         47.55700       64.43200       39.99900
C         49.57000       64.33100       38.52000
C         46.85200       63.13600       39.60100
N         48.92000       67.57200       37.01700
C         49.63300       68.15100       35.87100
C         50.56000       69.31000       36.25000
O         51.73400       69.33000       35.86500
C         48.65200       68.59000       34.77900
C         49.32400       69.11900       33.53900
C         50.01700       68.26300       32.68700
C         49.27600       70.47700       33.22500
C         50.64100       68.75100       31.53400
C         49.90000       70.96900       32.07600
C         50.57900       70.10900       31.23200
N         50.03600       70.26500       37.01100
C         50.83600       71.43000       37.40000
C         51.87200       71.11300       38.48500
O         52.72600       71.94300       38.77200
C         49.96800       72.66200       37.81100
C         49.19600       72.38000       39.10500
C         49.04700       73.08500       36.66000
C         48.40000       73.56200       39.63600
N         51.79800       69.91900       39.07200
C         52.78200       69.47700       40.06200
C         53.78400       68.46100       39.50900
O         54.48400       67.80100       40.27700
C         52.09000       68.92200       41.31500
C         51.57200       70.01600       42.22500
O         52.34200       70.67400       42.92100
N         50.26600       70.21700       42.22600
N         53.85700       68.35400       38.18200
C         54.75900       67.42100       37.50800
C         56.24300       67.80700       37.58700
O         56.67900       68.45700       38.53500
C         54.32500       67.24800       36.05300
C         53.64100       65.94300       35.63200
C         52.78800       65.33600       36.72700
C         52.82400       66.16600       34.37100
N         57.01300       67.40400       36.58000
C         58.47300       67.57700       36.57700
C         59.11800       66.27000       36.12700
O         58.63600       65.17400       36.47500
N         60.19700       66.37500       35.34800
C         60.87000       65.18800       34.78000
C         61.94000       64.58400       35.71800
O         62.51800       63.52700       35.42600
C         61.45900       65.50100       33.39300
O         62.43000       66.53400       33.47000
N         62.18600       65.25300       36.84500
C         63.10300       64.74800       37.86000
C         62.41100       63.74600       38.80900
O         63.02200       63.26700       39.76900
C         63.70600       65.92600       38.64600
C         65.17600       65.70300       39.01300
C         62.63900       66.83900       39.26900
O         65.50500       64.67800       39.65100
O         61.49900       66.89900       38.75500
O         66.01000       66.56500       38.66600
O         62.95200       67.51100       40.27600
N         61.15200       63.41600       38.51300
C         60.26800       62.67600       39.41900
C         60.67300       61.21600       39.64200
O         60.91600       60.48100       38.67700
C         58.84200       62.74000       38.88000
C         57.77200       62.30500       39.85900
S         56.17400       62.23200       39.04700
C         55.88500       63.97000       38.67800
N         60.72700       60.80700       40.91300
C         61.03800       59.42100       41.28500
C         59.81700       58.50200       41.15100
O         58.66700       58.96200       41.08100
C         61.61100       59.34200       42.70800
O         60.60900       59.53900       43.69400
N         60.07800       57.19800       41.11300
C         59.01300       56.20400       41.02100
C         58.11100       56.25400       42.25500
O         56.89400       56.15200       42.12300
C         59.57400       54.77800       40.74200
C         58.52400       53.69600       40.99500
C         60.09100       54.69600       39.31300
N         58.70100       56.44200       43.43700
C         57.92700       56.60700       44.67600
C         56.92700       57.75200       44.53900
O         55.74000       57.57500       44.81100
C         58.83200       56.80200       45.92900
C         58.02300       57.29300       47.12800
C         59.53200       55.50400       46.28500
N         57.40000       58.91300       44.09400
C         56.51300       60.06100       43.88800
C         55.43900       59.79700       42.82400
O         54.27600       60.14400       43.02500
C         57.30800       61.32700       43.55100
C         56.45700       62.59200       43.65500
C         57.23500       63.87200       43.39600
O         58.41400       63.84200       43.01600
N         56.57300       65.01400       43.60100
N         55.84600       59.19300       41.70400
C         54.92200       58.81200       40.63400
C         53.80600       57.90700       41.13600
O         52.62000       58.13900       40.85700
N         54.19100       56.88100       41.89300
C         53.23300       55.99700       42.55600
C         52.34300       56.70900       43.57100
O         51.16800       56.38400       43.66900
C         53.93700       54.80300       43.20400
C         54.60900       53.78300       42.26500
C         55.36200       52.75200       43.09300
C         53.62800       53.09100       41.29700
N         52.88500       57.67700       44.31300
C         52.06200       58.50600       45.20900
C         50.95700       59.24900       44.47100
O         49.82100       59.28500       44.94700
C         52.90100       59.49400       46.01400
C         53.66400       58.82900       47.13900
O         53.29300       57.74900       47.60100
N         54.74300       59.46800       47.58300
N         51.28600       59.81900       43.30900
C         50.28900       60.45100       42.44800
C         49.24800       59.43300       41.97800
O         48.04400       59.71800       41.96100
C         50.94600       61.11900       41.23900
C         51.58400       62.44900       41.54200
C         52.95000       62.63600       41.37400
C         50.81200       63.52200       41.99000
C         53.53200       63.86200       41.65000
C         51.39300       64.74900       42.27300
C         52.75200       64.91700       42.09700
N         49.71000       58.24400       41.59500
C         48.80500       57.21600       41.10600
C         47.81900       56.84300       42.20800
O         46.61400       56.73700       41.95500
C         49.57300       55.99800       40.59200
C         48.73700       54.88700       39.94600
C         47.79000       55.41400       38.87000
C         49.65300       53.84800       39.36000
N         48.33200       56.67200       43.42800
C         47.49300       56.39900       44.59500
C         46.51200       57.53400       44.81800
O         45.31500       57.29500       44.99400
N         47.03100       58.76400       44.78000
C         46.24300       59.98300       44.98000
C         45.05000       60.08700       44.03900
O         44.02400       60.66100       44.40600
C         47.12400       61.21200       44.83200
N         45.18300       59.53200       42.83200
C         44.14400       59.66600       41.82000
C         42.97100       58.72100       42.07400
O         41.86100       58.96500       41.59300
C         44.72100       59.42700       40.42900
O         44.93100       58.04800       40.19700
N         43.21500       57.65100       42.83000
C         42.23300       56.57700       42.99400
C         40.91800       56.99300       43.67400
O         39.83700       56.65500       43.16700
C         42.85600       55.37200       43.69600
C         44.01400       54.69700       42.96800
C         44.48700       53.52000       43.79500
C         43.63000       54.26200       41.53100
N         40.99200       57.73400       44.81100
C         39.74000       58.12900       45.47800
C         38.74300       58.82600       44.55700
O         37.60600       58.38100       44.48100
C         40.21500       59.05400       46.60200
C         41.57800       58.54700       46.91300
C         42.16500       58.22400       45.56400
N         39.15100       59.87700       43.84200
C         38.21000       60.54300       42.93200
C         37.82900       59.65200       41.74600
O         36.68000       59.67300       41.30300
C         38.67600       61.94800       42.46100
C         37.50800       62.72700       41.84400
C         39.83700       61.85800       41.46900
C         36.24600       62.76400       42.68700
N         38.77700       58.85800       41.25100
C         38.50000       57.97800       40.12100
C         37.31000       57.08200       40.43400
O         36.34500       57.02600       39.66000
C         39.72600       57.14100       39.75900
N         37.35700       56.41500       41.58600
C         36.37500       55.37200       41.85900
C         35.13300       55.79900       42.63300
O         34.03700       55.30600       42.33900
C         37.04700       54.09700       42.36800
C         37.91300       53.46800       41.33200
C         39.28600       53.68900       41.32800
C         37.34700       52.73200       40.29200
C         40.09000       53.13600       40.33000
C         38.14200       52.17600       39.28600
C         39.51100       52.37900       39.30100
N         35.27000       56.73600       43.56900
C         34.07400       57.34600       44.13600
C         33.34200       58.11300       43.03600
O         32.11600       58.13700       43.01600
C         34.35200       58.27000       45.33600
O         35.21200       59.34100       44.93000
C         34.98300       57.48800       46.48400
N         34.09700       58.70700       42.11100
C         33.52600       59.37200       40.93400
C         32.72000       58.43500       40.04800
O         31.55700       58.71400       39.73000
N         33.33200       57.31300       39.66300
C         32.65500       56.28400       38.89000
C         31.35300       55.82400       39.54100
O         30.29300       55.86500       38.91000
C         33.56900       55.08200       38.66300
C         32.95600       53.87500       37.94200
C         32.58300       54.24000       36.52100
C         33.91400       52.69900       37.96400
N         31.42600       55.37800       40.78900
C         30.26000       54.75400       41.41500
C         29.19000       55.75300       41.87100
O         27.98000       55.49700       41.71000
C         30.67000       53.79500       42.53800
C         31.35500       52.56500       42.04400
C         32.74000       52.52900       41.93100
C         30.61600       51.44100       41.65400
C         33.38900       51.37800       41.45700
C         31.25000       50.28100       41.16900
C         32.63300       50.24800       41.06900
N         29.62000       56.89100       42.41300
C         28.65300       57.89400       42.83200
C         27.98000       58.50400       41.61000
O         26.79300       58.80100       41.64700
C         29.27000       58.95600       43.73400
O         30.13000       59.81600       43.01700
N         28.72700       58.64700       40.51900
C         28.17300       59.16100       39.27400
C         27.00100       58.32400       38.79800
O         25.91200       58.84800       38.51900
N         27.22800       57.01700       38.71600
C         26.19200       56.06200       38.35000
C         25.02400       56.09800       39.33300
O         23.86800       56.20400       38.90600
C         26.77600       54.62700       38.23000
C         27.67200       54.54200       36.99000
C         25.66500       53.54000       38.21100
C         28.60300       53.35300       37.01200
N         25.32900       56.01800       40.63300
C         24.29200       56.00900       41.67600
C         23.46400       57.29300       41.62700
O         22.22500       57.24600       41.69600
C         24.90100       55.80400       43.06700
N         24.15000       58.42900       41.48100
C         23.49600       59.72000       41.44500
C         22.57800       59.82100       40.22800
O         21.46000       60.33900       40.33300
C         24.52500       60.85200       41.45000
C         23.93300       62.19900       41.77200
C         24.98300       63.24200       41.98200
O         25.99100       63.27000       41.27600
N         24.76300       64.12100       42.95700
N         23.04900       59.31300       39.08900
C         22.24900       59.27800       37.86500
C         20.90900       58.56700       38.03700
O         19.87900       59.03600       37.53800
N         20.92700       57.43700       38.74800
C         19.71000       56.69400       39.08300
C         18.74400       57.52600       39.94300
O         17.53000       57.52100       39.69200
C         20.04700       55.39700       39.80200
C         20.61300       54.33000       38.90000
C         21.15700       53.15800       39.70000
C         21.69900       52.10500       38.75600
N         22.74400       51.25000       39.37700
N         19.26300       58.24800       40.93700
C         18.39500       59.07300       41.77100
C         17.87900       60.25900       40.95400
O         16.70100       60.61100       41.04400
C         19.08500       59.55900       43.07400
C         18.08100       60.19900       44.01400
C         19.76400       58.41400       43.77900
N         18.75000       60.87100       40.15500
C         18.34400       62.01900       39.34700
C         17.25300       61.60600       38.36400
O         16.24300       62.31200       38.22300
C         19.53700       62.63500       38.62800
N         17.44300       60.44800       37.72600
C         16.44000       59.87200       36.82400
C         15.10600       59.65800       37.52900
O         14.04300       59.96900       36.96800
C         16.93500       58.56700       36.22800
N         15.16300       59.13000       38.75500
C         13.96400       58.95600       39.58100
C         13.27800       60.30800       39.88500
O         12.04100       60.39500       39.90000
C         14.29500       58.20300       40.86100
N         14.09100       61.34700       40.10700
C         13.60700       62.70600       40.30600
C         12.79800       63.25100       39.14200
O         11.86700       64.03000       39.35700
N         13.14300       62.83900       37.91400
C         12.37500       63.20500       36.70800
C         10.88600       62.86000       36.86000
O         10.02200       63.61100       36.41000
C         12.99000       62.58700       35.40100
C         14.38900       63.17600       35.12000
C         12.07000       62.75400       34.17800
C         14.42200       64.59700       34.58100
N         10.58900       61.74800       37.53100
C          9.19400       61.34500       37.76400
C          8.47300       62.23800       38.77800
O          7.25700       62.41300       38.67600
C          9.07300       59.86100       38.14100
C         10.05100       58.90900       37.39200
C          8.85300       58.91500       36.96900
C         10.14000       59.12900       35.86600
C          7.56800       59.19800       36.20200
O          9.13400       59.31100       35.18400
O          6.46400       59.02600       36.71600
N         11.35700       59.09100       35.33800
N          7.71300       59.62700       34.95700
N          9.21300       62.80400       39.73800
C          8.64900       63.81500       40.62900
C          8.26000       65.02000       39.77600
O          7.15200       65.53600       39.86500
C          9.63500       64.24800       41.75500
C          9.95200       63.06900       42.68200
C          9.07400       65.42900       42.55200
C         11.13200       63.31000       43.60800
N          9.18700       65.43500       38.92700
C          8.96100       66.50200       37.97200
C          7.74200       66.23800       37.07900
O          6.95000       67.14800       36.80500
C         10.20800       66.67000       37.11700
C         10.37200       67.93100       36.27700
C         10.22800       69.16200       37.14200
C         11.74200       67.89500       35.62200
N          7.58800       64.98800       36.64300
C          6.44500       64.58800       35.80900
C          5.09100       64.73900       36.52200
O          4.12600       65.20300       35.92200
C          6.62300       63.16600       35.31600
N          5.04000       64.35400       37.80000
C          3.78300       64.22400       38.53400
C          3.50700       65.40800       39.43900
O          2.36300       65.81300       39.59500
C          3.78700       62.93700       39.36700
C          3.72200       61.64600       38.55300
C          2.27400       61.29500       38.18900
C          2.14700       59.85200       37.69700
N          2.82500       59.65400       36.39400
N          4.56300       65.94900       40.04000
C          4.44800       67.01500       41.02600
C          5.52100       68.06600       40.75400
O          6.43400       68.25100       41.56700
C          4.62300       66.45100       42.44100
C          3.70000       65.30000       42.81800
C          2.42300       65.80100       43.41700
C          1.57200       64.65800       43.88900
N          0.35300       65.20800       44.53800
N          5.41600       68.76900       39.61000
C          6.48100       69.69600       39.21900
C          6.82400       70.72500       40.30200
O          7.97300       71.17700       40.37500
C          5.91200       70.38500       37.97600
C          4.46900       70.07400       37.96800
C          4.31700       68.76300       38.63300
N          5.84200       71.07700       41.13400
C          6.04400       72.05700       42.19900
C          6.94200       71.52300       43.33400
O          7.38300       72.28200       44.18400
C          4.69700       72.61800       42.71800
C          3.83000       71.65700       43.55900
C          3.09700       70.56000       42.74500
O          2.37600       69.73500       43.36600
O          3.23400       70.51700       41.49600
N          7.22800       70.22400       43.32200
C          8.10700       69.61200       44.32000
C          9.45300       69.14300       43.74200
O         10.15300       68.32400       44.35100
C          7.40300       68.43500       44.98100
C          6.23400       68.82700       45.81700
N          6.37100       69.28900       47.10600
C          4.90600       68.82000       45.55700
C          5.17800       69.56000       47.60300
N          4.27200       69.28400       46.68300
N          9.81500       69.66900       42.57600
C         11.04500       69.28900       41.89400
C         12.31900       69.43700       42.73600
O         13.23100       68.62900       42.61000
C         11.17200       70.04400       40.58500
N         12.37800       70.45900       43.58600
C         13.52400       70.67500       44.48400
C         13.82200       69.44200       45.34800
O         14.99200       69.11100       45.60900
C         13.30200       71.90500       45.39000
O         13.05200       73.04500       44.56500
C         14.52600       72.19600       46.25300
N         12.75900       68.76400       45.78100
C         12.88600       67.54000       46.56200
C         13.69900       66.49200       45.79300
O         14.58400       65.85100       46.36400
C         11.51000       67.01300       46.94100
C         10.81600       67.86500       47.95200
C          9.44800       67.30600       48.26400
C          8.75800       68.09700       49.34500
N          8.64500       69.51900       48.96500
N         13.40600       66.35200       44.49900
C         14.15500       65.46300       43.60500
C         15.62800       65.82100       43.51300
O         16.48800       64.94000       43.50700
N         15.91500       67.11700       43.45000
C         17.28200       67.60600       43.41800
C         17.99200       67.23800       44.71800
O         19.11500       66.74800       44.68600
C         17.32700       69.13400       43.16400
C         16.82000       69.45300       41.74900
C         18.73200       69.68800       43.39100
C         16.51900       70.92000       41.50800
N         17.32700       67.45200       45.85400
C         17.92400       67.16100       47.15900
C         18.23500       65.66300       47.30300
O         19.35700       65.30300       47.69000
C         17.08000       67.72200       48.33000
C         17.08100       69.24800       48.27400
C         17.60400       67.23400       49.68500
C         16.04500       69.89600       49.15400
N         17.28100       64.79400       46.96300
C         17.53700       63.34700       46.99600
C         18.81600       63.01000       46.22300
O         19.67400       62.27300       46.71900
C         16.36800       62.54000       46.41600
C         15.14300       62.51900       47.27700
C         13.88800       62.67300       46.70800
C         15.23400       62.34700       48.65400
C         12.74000       62.65700       47.49500
C         14.08600       62.33400       49.45800
C         12.83800       62.48100       48.87200
N         18.93300       63.55700       45.01100
C         20.09100       63.32200       44.15100
C         21.35800       63.93000       44.77200
O         22.42500       63.29000       44.77300
C         19.83900       63.87900       42.75700
N         21.22000       65.13300       45.33200
C         22.32600       65.84000       45.96600
C         22.97100       65.04300       47.09100
O         24.18100       65.10900       47.27700
C         21.87300       67.18600       46.47400
N         22.18100       64.26800       47.82200
C         22.72600       63.44600       48.90800
C         23.82200       62.47700       48.46200
O         24.73100       62.17700       49.24300
C         21.61600       62.69200       49.63500
C         20.59800       63.58900       50.32600
S         21.31000       64.80500       51.47000
C         21.51800       66.29100       50.46000
N         23.74100       61.99700       47.21600
C         24.76200       61.09900       46.67300
C         26.05600       61.87300       46.37700
O         27.15400       61.30700       46.42600
C         24.26500       60.33200       45.42300
C         25.29100       59.28200       44.97700
C         22.93000       59.64100       45.70600
N         25.92000       63.17100       46.10100
C         27.06500       64.04000       45.82900
C         28.16400       63.96900       46.90000
O         29.35200       63.97400       46.56300
C         26.60200       65.48600       45.64800
C         27.66500       66.43100       45.10200
C         28.04900       66.14800       43.64200
O         27.34300       65.37700       42.93400
O         29.07500       66.71400       43.19500
N         27.76700       63.89900       48.17500
C         28.71100       63.79900       49.30200
C         29.93900       62.91800       49.01000
O         31.07500       63.29400       49.30200
C         28.00800       63.23900       50.56000
O         26.77300       63.92500       50.76100
C         28.86300       63.39300       51.80000
N         29.70500       61.75500       48.41900
C         30.73800       60.73200       48.32500
C         31.74400       61.01800       47.21600
O         32.91200       60.62000       47.31300
C         30.08600       59.33100       48.31700
C         29.14100       59.31500       49.48200
C         27.77700       59.51400       49.29700
C         29.63200       59.28100       50.79500
C         26.91700       59.60300       50.38600
C         28.78500       59.37300       51.88500
C         27.43400       59.52900       51.67000
O         26.58800       59.60900       52.73500
N         31.29500       61.75100       46.19500
C         32.19600       62.32200       45.20400
C         33.04000       63.44400       45.83400
O         34.24600       63.52100       45.60200
C         31.41800       62.82900       44.00400
N         32.41200       64.29800       46.63900
C         33.13300       65.38300       47.32700
C         34.20000       64.84700       48.30400
O         35.35100       65.29600       48.27100
C         32.16300       66.40700       48.02200
C         31.36000       67.17500       46.96100
C         32.93000       67.39300       48.91200
C         30.10800       67.84600       47.49300
N         33.82500       63.87700       49.14300
C         34.78700       63.21500       50.03500
C         35.95000       62.56900       49.27200
O         37.11000       62.72800       49.66600
C         34.09800       62.18500       50.93000
C         33.06000       62.70200       51.94400
C         32.42900       61.53600       52.70500
C         33.64200       63.73600       52.92400
N         35.63600       61.86600       48.18000
C         36.64800       61.33200       47.26000
C         37.54800       62.40600       46.66700
O         38.76900       62.23800       46.61100
N         36.94300       63.51100       46.23400
C         37.68200       64.66800       45.72600
C         38.63400       65.26200       46.77700
O         39.79600       65.55000       46.47400
C         36.71300       65.73900       45.18500
C         37.39100       67.00200       44.69500
C         38.06100       67.02600       43.47600
C         37.34600       68.17400       45.45600
C         38.68100       68.19600       43.02300
C         37.96900       69.35000       45.01700
C         38.63400       69.35900       43.80200
N         38.14100       65.44300       48.00200
C         38.93500       66.05100       49.06800
C         40.16000       65.18300       49.39900
O         41.27900       65.70100       49.52300
C         38.06400       66.37500       50.31100
C         38.91600       66.69900       51.54200
C         37.13700       67.53000       50.00200
N         39.95800       63.86900       49.50700
C         41.07100       62.94500       49.77700
C         42.09400       62.96300       48.64000
O         43.29600       63.07600       48.89700
C         40.59600       61.48700       50.08600
C         39.84400       61.42400       51.42100
C         41.77100       60.51200       50.11600
C         40.62700       61.94200       52.64100
N         41.62200       62.86900       47.39600
C         42.50100       62.98000       46.22400
C         43.28400       64.28600       46.23700
O         44.49100       64.28800       46.00400
C         41.71500       62.85600       44.91300
O         41.45700       61.49500       44.59600
N         42.59200       65.38700       46.53400
C         43.20600       66.71000       46.59300
C         44.36600       66.74800       47.60000
O         45.48400       67.16200       47.25200
C         42.15000       67.77000       46.93000
C         42.63700       69.18800       46.77600
C         42.45500       69.86500       45.57300
C         43.26700       69.85500       47.83800
C         42.91000       71.18200       45.41500
C         43.72200       71.16900       47.68800
C         43.54700       71.83100       46.47200
N         44.10100       66.30700       48.83100
C         45.12600       66.26100       49.87100
C         46.32200       65.40300       49.45900
O         47.47500       65.78700       49.65900
C         44.54000       65.74800       51.19100
C         43.56900       66.65000       51.95100
C         43.03300       65.91300       53.17400
C         44.22800       67.96400       52.35000
N         46.03600       64.24200       48.88100
C         47.07700       63.30900       48.48300
C         47.93400       63.83400       47.33400
O         49.14700       63.60400       47.31700
C         46.48400       61.94500       48.14300
C         46.09400       61.07800       49.34000
C         45.42100       59.80200       48.86600
C         47.30500       60.76400       50.20400
N         47.31500       64.54700       46.39000
C         48.05300       65.15000       45.27600
C         49.03900       66.19300       45.79600
O         50.20300       66.19400       45.40600
C         47.11700       65.75000       44.19100
C         47.90700       66.57800       43.18400
C         46.38200       64.65200       43.46300
N         48.57200       67.06000       46.69300
C         49.42000       68.08500       47.30700
C         50.53700       67.48600       48.14100
O         51.56300       68.11900       48.34300
C         48.59700       69.02700       48.18500
C         47.58400       69.96000       47.52100
C         47.09600       70.97300       48.53900
C         48.16700       70.65600       46.28300
N         50.34000       66.26300       48.61400
C         51.31200       65.61400       49.48500
C         52.12700       64.51400       48.79800
O         52.99100       63.90200       49.42100
C         50.60800       65.10300       50.74800
C         51.57600       64.70400       51.84500
C         50.36600       66.21100       51.77100
O         51.79500       63.51200       52.08700
O         50.96600       66.21800       52.84600
N         52.16000       65.69700       52.51800
N         49.49300       67.15500       51.43300
N         51.86700       64.28800       47.51000
C         52.56200       63.24900       46.73800
C         54.06700       63.47700       46.67700
O         54.85300       62.52200       46.68000
C         52.00200       63.16200       45.33500
O         54.53000       64.62100       46.61200
N         61.09000       46.32900       42.02300
C         60.03300       47.24200       42.55000
C         59.88400       47.10000       44.05800
O         60.05900       48.07000       44.79900
C         58.68200       46.97300       41.87600
C         57.48900       47.65900       42.55200
S         57.50600       49.45700       42.36700
C         56.22900       49.66500       41.12600
N         59.54300       45.89000       44.49900
C         59.33000       45.61700       45.91300
C         60.62500       45.82500       46.68700
O         60.62100       46.36100       47.79400
C         58.80100       44.19900       46.10400
C         57.90500       44.01300       47.32000
S         56.57100       45.23100       47.51000
C         57.24600       46.25000       48.83300
N         61.73100       45.42000       46.07400
C         63.05600       45.66800       46.61700
C         63.36900       47.17000       46.66200
O         63.98200       47.65500       47.61500
C         64.10100       44.92300       45.78600
C         65.39100       44.69900       46.54600
O         66.20400       45.64600       46.65600
O         65.59300       43.56900       47.03500
N         62.93900       47.89500       45.63000
C         63.13500       49.34200       45.55000
C         62.37800       50.07600       46.65600
O         62.96000       50.91000       47.35300
C         62.72600       49.86100       44.16600
C         62.49700       51.36200       44.07500
C         63.57500       52.25400       44.02800
C         61.19800       51.89000       44.01500
C         63.36900       53.63700       43.93300
C         60.98200       53.26700       43.92000
C         62.07500       54.13500       43.88100
O         61.88600       55.49700       43.78800
N         61.09000       49.75900       46.81000
C         60.25800       50.35800       47.86100
C         60.83400       50.08300       49.25400
O         60.90700       50.98700       50.10100
C         58.80400       49.87700       47.76800
C         58.01200       50.28600       46.52500
C         56.63400       49.66900       46.56400
C         57.90800       51.79300       46.36700
N         61.25200       48.83700       49.47500
C         61.86900       48.43500       50.73300
C         63.10000       49.30000       51.01500
O         63.15300       49.98200       52.04100
C         62.19600       46.90700       50.74800
C         60.90400       46.09200       50.92300
C         63.20600       46.56600       51.84300
C         60.93500       44.70400       50.30200
N         64.04500       49.31400       50.07300
C         65.36000       49.94500       50.27300
C         65.37300       51.48200       50.17400
O         66.37500       52.11400       50.52400
C         66.42800       49.34400       49.31800
O         65.95900       49.42300       47.96600
C         66.72100       47.88100       49.67200
N         64.27200       52.07400       49.71000
C         64.17100       53.53700       49.57300
C         63.12400       54.14700       50.50400
O         62.70900       55.29700       50.30600
C         63.85300       53.93600       48.12300
C         64.84900       53.43400       47.09100
C         66.24300       53.95600       47.31300
O         66.46100       55.16400       47.38000
N         67.20100       53.04600       47.42300
N         62.71400       53.37600       51.51400
C         61.58900       53.72600       52.40300
C         60.33500       54.25200       51.68000
O         59.79700       55.31700       52.01000
C         62.03700       54.67600       53.52300
C         62.76200       53.95200       54.63200
O         63.94000       53.62800       54.50800
N         62.05900       53.68800       55.72400
N         59.88000       53.48900       50.69100
C         58.69800       53.85300       49.93000
C         57.42900       53.26900       50.52400
O         56.47700       53.00200       49.79500
N         57.41600       53.07100       51.84500
C         56.22700       52.60500       52.56200
C         55.05600       53.56700       52.45000
O         53.90400       53.17100       52.57500
N         55.36900       54.83700       52.21800
C         54.39100       55.88400       51.94200
C         53.34200       55.43600       50.90900
O         52.14300       55.68600       51.09000
C         55.14800       57.14700       51.49100
C         54.32700       58.38700       51.17600
C         54.26000       58.30400       51.00600
S         55.32600       59.90300       51.24900
S         53.13500       59.00600       52.24100
C         56.79400       59.48800       50.29400
C         54.20300       60.16400       53.08400
N         53.79000       54.75400       49.85100
C         52.89800       54.28900       48.77100
C         51.75200       53.43100       49.30500
O         50.60800       53.58600       48.86700
C         53.66400       53.57900       47.59300
C         54.81900       54.44600       47.09600
C         52.70000       53.04100       46.54600
C         54.14100       52.17700       47.97800
C         54.67000       54.53400       46.96000
N         52.06000       52.54800       50.25600
C         51.04700       51.69200       50.87100
C         50.11700       52.45100       51.80800
O         48.94600       52.09400       51.93300
C         51.68100       50.50900       51.59100
C         52.46500       49.62300       50.69100
C         53.86100       49.61400       50.74500
C         51.81800       48.81700       49.75600
C         54.61200       48.79500       49.89600
C         52.55300       47.99500       48.90200
C         53.95800       47.98300       48.97300
N         50.63700       53.49200       52.45800
C         49.82000       54.36300       53.28400
C         48.85600       55.17700       52.41800
O         47.70100       55.38300       52.80200
C         50.69400       55.27000       54.12200
N         49.33200       55.63200       51.25600
C         48.48700       56.35500       50.30300
C         47.37700       55.42800       49.82400
O         46.20100       55.80800       49.79200
C         49.29600       56.90700       49.10500
C         48.37400       57.47900       48.03700
C         50.28800       57.96900       49.56800
N         47.75600       54.19900       49.48300
C         46.79500       53.16700       49.11200
C         45.79700       52.89200       50.23800
O         44.61100       52.64600       49.98200
C         47.51600       51.87800       48.69800
C         46.71600       50.77200       47.99600
C         48.15700       51.87600       47.30700
C         46.19500       51.22000       46.63300
C         48.90000       50.57500       47.08900
C         47.57400       49.53900       47.84000
C         47.11000       52.08700       46.21400
N         46.28700       52.95100       51.47800
C         45.46000       52.77200       52.66500
C         44.33700       53.80500       52.69100
O         43.16800       53.46300       52.88900
C         46.30200       52.89000       53.90200
N         44.69900       55.06400       52.47100
C         43.72400       56.14900       52.41600
C         42.73000       55.97200       51.27700
O         41.52100       56.12200       51.48000
C         44.42800       57.49000       52.29100
C         45.16100       57.88800       53.54800
S         46.12300       59.37200       53.29100
C         44.82900       60.55100       52.89200
N         43.23500       55.63900       50.09200
C         42.36400       55.37400       48.94400
C         41.34800       54.27000       49.26300
O         40.15400       54.45800       49.04100
C         43.17900       55.04500       47.69500
N         41.82200       53.15300       49.82500
C         40.96300       52.00200       50.18900
C         39.85400       52.34100       51.19000
O         38.68000       52.05100       50.94100
C         41.80000       50.81300       50.71900
O         42.75300       51.27700       51.67900
O         42.78900       50.47800       49.74000
C         42.52600       50.12600       49.59000
C         40.93800       49.59400       51.00400
N         40.23000       52.94900       52.31400
C         39.26600       53.40600       53.30400
C         38.20700       54.31400       52.68200
O         37.01800       54.16000       52.96900
C         39.97700       54.12100       54.43600
N         38.64100       55.24300       51.82600
C         37.73300       56.19200       51.17700
C         36.81100       55.53500       50.13900
O         35.58300       55.67700       50.21900
C         38.50000       57.34400       50.51800
O         39.40600       57.91100       51.46500
C         37.53900       58.43400       50.03700
N         37.41200       54.82000       49.18500
C         36.69900       54.25800       48.02800
C         35.58000       53.28000       48.41100
O         34.41300       53.49100       48.05900
C         37.68000       53.62000       47.00600
C         38.52500       54.71400       46.34300
C         36.93500       52.79000       45.95900
C         39.79400       54.20800       45.69600
N         35.92000       52.22900       49.14300
C         34.93800       51.19100       49.43300
C         33.79800       51.60300       50.38400
O         32.64300       51.22900       50.16300
C         35.64600       49.90800       49.85800
C         36.52500       49.35100       48.77800
C         37.88800       49.58500       48.78500
C         35.96800       48.64700       47.71600
C         38.68900       49.09000       47.77600
C         36.75200       48.15700       46.70700
C         38.12500       48.37400       46.73300
N         34.10600       52.39400       51.41000
C         33.06800       52.92000       52.28500
C         32.17900       53.88900       51.50400
O         30.94900       53.87500       51.65400
C         33.68100       53.60700       53.50300
O         34.47800       54.71000       53.11400
N         32.80800       54.71500       50.66400
C         32.09700       55.62800       49.76200
C         31.18800       54.91300       48.76800
O         30.05700       55.33800       48.53300
N         31.66400       53.81700       48.19400
C         30.83200       53.05800       47.27000
C         29.59900       52.51300       47.98600
O         28.48400       52.59200       47.45100
C         31.61100       51.92500       46.57800
C         32.64100       52.50900       45.60900
C         30.66200       50.99500       45.82300
C         33.64000       51.47600       45.11100
N         29.80900       51.97000       49.18600
C         28.71300       51.48300       50.03100
C         27.65600       52.55100       50.32100
O         26.44100       52.30100       50.23600
N         28.11700       53.74800       50.65900
C         27.20200       54.85100       50.89900
C         26.51800       55.28800       49.60800
O         25.30000       55.47900       49.59400
C         27.91100       56.02400       51.57900
O         27.98600       55.82700       52.97500
N         27.28800       55.42600       48.52600
C         26.71800       55.88400       47.25700
C         25.60900       54.93200       46.82300
O         24.51900       55.35400       46.45600
C         27.78700       56.01500       46.18500
N         25.88300       53.64000       46.90800
C         24.88300       52.64300       46.59600
C         23.68500       52.69300       47.54800
O         22.53400       52.74000       47.09900
C         25.52400       51.25600       46.55800
C         26.21800       51.00700       45.23000
C         26.90300       49.68600       45.20700
C         27.26300       49.31600       43.78700
N         26.03400       48.92400       43.04900
N         23.96000       52.70400       48.85300
C         22.91500       52.65600       49.86000
C         22.05000       53.90100       49.83700
O         20.80100       53.81200       49.86500
N         22.71300       55.06200       49.80500
C         22.03500       56.35100       49.73500
C         21.29400       56.45500       48.39600
O         20.16400       56.95600       48.34700
C         23.02900       57.51700       49.92100
C         22.40600       58.87300       49.55500
C         23.53800       57.53900       51.34300
N         21.91200       55.95700       47.32500
C         21.29200       55.98400       46.02200
C         19.99700       55.20200       46.00200
O         18.96000       55.70800       45.57200
N         20.06200       53.96200       46.47900
C         18.91300       53.07300       46.46900
C         17.75100       53.64300       47.28200
O         16.60900       53.65700       46.80300
C         19.28800       51.69400       46.99100
C         18.06800       50.82500       47.19200
S         18.44300       49.15100       47.67400
C         18.94200       48.43700       46.09600
N         18.03700       54.09400       48.50600
C         17.03400       54.74100       49.35000
C         16.46900       55.99900       48.66500
O         15.26000       56.20300       48.67300
C         17.60700       55.08000       50.73400
O         18.27400       53.92500       51.25000
C         16.50500       55.52200       51.69800
N         17.34200       56.80800       48.05700
C         16.93800       57.95700       47.25200
C         15.92000       57.63300       46.17200
O         14.93500       58.34500       46.00300
N         16.15300       56.55200       45.43700
C         15.21500       56.09700       44.41500
C         13.83000       55.78700       45.01100
O         12.80100       56.23100       44.48500
C         15.77700       54.87700       43.69400
C         17.03200       55.14400       42.89100
C         17.64200       53.86300       42.33400
O         16.99100       53.19700       41.49400
O         18.77400       53.51000       42.73800
N         13.81700       55.03500       46.11400
C         12.59400       54.71600       46.85000
C         11.91900       55.99100       47.35300
O         10.69400       56.12300       47.28600
C         12.90700       53.80000       48.01900
N         12.72700       56.92800       47.85100
C         12.22300       58.16400       48.40100
C         11.60700       58.99000       47.28700
O         10.53300       59.58400       47.46700
C         13.33100       58.92300       49.09500
N         12.27100       59.01400       46.13000
C         11.77900       59.78500       44.99400
C         10.44100       59.22700       44.53900
O          9.49500       59.99700       44.30300
C         12.77200       59.78200       43.87000
N         10.35400       57.89200       44.43900
C          9.10200       57.22400       44.06200
C          7.93900       57.60700       45.01300
O          6.85400       58.00500       44.55700
C          9.29000       55.73900       43.98800
N          8.17300       57.53800       46.32300
C          7.16500       57.95800       47.27700
C          6.76000       59.41400       47.04600
O          5.58100       59.75100       47.13100
C          7.65600       57.75800       48.71100
C          6.73100       58.21800       49.84600
C          5.39400       57.47200       49.81500
C          7.40900       58.07800       51.20900
N          7.73600       60.26600       46.73600
C          7.50300       61.70900       46.62000
C          6.59100       62.06800       45.44200
O          5.92600       63.11000       45.46700
C          8.83400       62.48600       46.54600
O          9.62800       62.14100       47.68100
C          8.61900       63.99200       46.54200
N          6.53800       61.20200       44.42900
C          5.68000       61.45500       43.25800
C          4.19000       61.42300       43.60900
O          3.36400       61.96800       42.87600
C          5.92500       60.46400       42.10300
O          5.41500       59.18000       42.47200
C          7.40200       60.36500       41.77600
N          3.84500       60.77300       44.71200
C          2.46700       60.76700       45.13700
C          2.26900       61.40700       46.51500
O          1.24500       62.05400       46.74300
C          1.87700       59.35600       45.06600
O          2.20300       58.59800       46.21300
N          3.24200       61.25000       47.41400
C          3.13900       61.81400       48.76200
C          4.33900       62.69900       49.12000
O          5.17800       62.30500       49.94900
C          2.95800       60.70900       49.80000
C          1.70900       59.90600       49.61900
C          1.77300       58.61600       50.37500
O          1.81600       58.59900       51.59500
N          1.79600       57.51800       49.65000
N          4.41300       63.91100       48.52100
C          5.58200       64.76300       48.73800
C          5.67100       65.24900       50.17600
O          6.73900       65.67000       50.61400
C          5.35400       65.93400       47.77400
C          3.90100       65.94600       47.50900
C          3.42100       64.54600       47.62900
N          4.55100       65.15300       50.89500
C          4.42300       65.62700       52.28000
C          5.36800       64.89600       53.25000
O          5.70800       65.40800       54.31200
C          2.94900       65.56700       52.74700
C          2.35600       64.15700       52.99700
C          1.60700       63.53700       51.79500
O          1.64000       64.10800       50.67500
O          0.97200       62.46500       51.98000
N          5.81600       63.71700       52.84800
C          6.62400       62.86100       53.69800
C          8.11700       62.97900       53.41300
O          8.91300       62.13200       53.88200
C          6.14100       61.42400       53.54800
C          4.71900       61.29400       54.05800
C          4.06000       59.99600       53.66500
C          2.68500       59.92400       54.30100
N          2.19300       58.52600       54.22400
N          8.47300       64.06500       52.73200
C          9.83000       64.33700       52.28100
C         10.87700       64.28900       53.39000
O         11.85600       63.54200       53.28300
C          9.87900       65.69600       51.57300
C         11.26400       66.12900       51.18000
C         11.99600       65.41700       50.21600
C         11.84200       67.24900       51.77100
C         13.28300       65.82100       49.85200
C         13.12400       67.66500       51.42000
C         13.85000       66.95100       50.45900
N         10.67600       65.09700       54.43100
C         11.60400       65.18300       55.56300
C         11.93700       63.84200       56.20500
O         13.10400       63.54400       56.46400
N         10.91400       63.02700       56.45500
C         11.10800       61.69200       57.01700
C         11.86300       60.77900       56.02200
O         12.77400       60.03600       56.41200
C          9.76900       61.08400       57.45500
C          8.89900       61.98900       58.35900
C          9.18900       61.69100       58.71700
C          7.83700       62.81100       57.60400
C          9.87300       61.20000       59.97900
O          6.65600       62.45600       57.60000
O         11.01000       61.56000       60.27300
N          8.25500       63.91300       56.98200
N          9.17300       60.37700       60.73800
N         11.50100       60.87400       54.73900
C         12.15500       60.12000       53.66600
C         13.61400       60.49400       53.56900
O         14.45700       59.63100       53.29800
C         11.47200       60.37100       52.33800
N         13.90000       61.77800       53.79800
C         15.26100       62.30000       53.75900
C         16.11600       61.70500       54.87100
O         17.26100       61.30300       54.62100
C         15.26300       63.82500       53.83400
C         16.53800       64.55900       53.41300
C         17.14400       63.99400       52.12200
C         16.22200       66.02900       53.25400
N         15.55700       61.62300       56.08300
C         16.25900       61.00800       57.21400
C         16.64000       59.56200       56.90300
O         17.79100       59.16600       57.11200
C         15.44300       61.09300       58.51900
C         15.33200       62.55600       58.97500
C         16.05800       60.20000       59.62700
C         14.27400       62.77700       60.03800
N         15.68400       58.78700       56.38800
C         15.95500       57.39900       55.99500
C         17.09400       57.30400       54.96400
O         17.95600       56.41900       55.06700
C         14.69000       56.70800       55.47600
C         13.66200       56.18300       56.48700
C         12.38700       55.75400       55.77700
C         14.21100       55.03400       57.31600
N         17.10800       58.22200       53.99200
C         18.16100       58.26000       52.98100
C         19.54500       58.54100       53.56900
O         20.55400       58.09300       53.01400
C         17.84400       59.27100       51.88600
C         18.70500       59.08000       50.65600
C         18.66100       60.25800       49.70900
O         18.10400       61.31300       50.02800
N         19.26200       60.08700       48.52400
N         19.59000       59.27400       54.68100
C         20.86300       59.62200       55.31800
C         21.52200       58.45700       56.05700
O         22.73900       58.40900       56.15800
C         20.71300       60.83700       56.25000
C         20.34700       62.18100       55.59000
C         20.36400       63.32600       56.60900
C         21.23400       62.51200       54.36100
N         20.72900       57.51500       56.55300
C         21.27000       56.36400       57.29200
C         22.42200       55.59800       56.59900
O         23.49000       55.41600       57.20000
C         20.14000       55.41900       57.72100
C         19.41500       55.69100       59.05400
C         19.66000       57.07700       59.63500
C         17.92400       55.42400       58.90300
N         22.22800       55.15200       55.33300
C         23.34200       54.48400       54.63900
C         24.47600       55.44600       54.27100
O         25.48300       55.02900       53.68700
C         22.69700       53.94100       53.35700
C         21.24700       54.07600       53.54200
C         21.03000       55.20700       54.47500
N         24.31000       56.71800       54.62200
C         25.27800       57.74000       54.27200
C         26.41600       57.90100       55.25300
O         27.38600       58.59800       54.96300
N         26.30700       57.26400       56.41500
C         27.33500       57.41700       57.44700
C         28.62500       56.64200       57.12200
O         29.72900       57.07800       57.48400
C         26.81300       57.04100       58.85500
O         26.22600       55.73700       58.80300
C         25.77700       58.03500       59.32800
N         28.48000       55.51500       56.43000
C         29.61200       54.63900       56.08600
C         30.79000       55.35300       55.41100
O         31.92900       55.22700       55.84800
C         29.14100       53.46200       55.21800
C         28.57400       52.28400       56.00300
C         27.10600       52.46400       56.42500
O         26.57700       53.59100       56.50300
N         26.44200       51.33600       56.71800
N         30.50500       56.10200       54.35200
C         31.53200       56.84200       53.62800
C         32.19000       57.91200       54.48100
O         33.36300       58.23900       54.27800
N         31.43700       58.46200       55.43400
C         31.98100       59.45600       56.34900
C         32.98700       58.81900       57.29300
O         34.03600       59.39800       57.55200
C         30.87300       60.16400       57.12800
C         29.98700       61.14200       56.35000
C         28.79600       61.56100       57.21300
C         30.78500       62.37100       55.89400
N         32.68000       57.62700       57.80100
C         33.63500       56.89500       58.63600
C         34.93200       56.64900       57.87700
O         36.02600       56.88600       58.40500
C         33.06900       55.54900       59.09300
C         31.83200       55.61700       59.95200
C         30.81000       54.68100       59.79200
C         31.67900       56.60500       60.92700
C         29.67100       54.72900       60.57800
C         30.54300       56.66000       61.70800
C         29.55000       55.72100       61.52300
O         28.42600       55.76100       62.28700
N         34.79100       56.16800       56.64100
C         35.91800       55.87800       55.76700
C         36.76700       57.11100       55.55100
O         37.99900       57.04100       55.62400
N         36.10300       58.24100       55.30300
C         36.78200       59.52000       55.11600
C         37.58600       59.87600       56.36400
O         38.77000       60.22600       56.26500
C         35.77600       60.62000       54.76900
C         36.38800       61.98200       54.61800
C         36.97900       62.37000       53.41900
C         36.37200       62.88500       55.67700
C         37.54900       63.64400       53.28200
C         36.94200       64.15800       55.55000
C         37.52900       64.53800       54.35300
N         36.94300       59.76600       57.53000
C         37.58800       60.04100       58.81500
C         38.83800       59.17100       58.99900
O         39.90700       59.69600       59.30800
C         36.59100       59.93500       60.01400
C         37.31000       59.93500       61.35700
C         35.60300       61.08300       59.96900
N         38.71400       57.86100       58.77800
C         39.87600       56.96600       58.84300
C         41.00000       57.42100       57.89000
O         42.16400       57.48200       58.29300
C         39.48400       55.46800       58.60000
C         38.63500       54.92200       59.75700
C         40.72500       54.57800       58.38700
C         39.28100       55.06500       61.14400
N         40.64600       57.75000       56.64300
C         41.62100       58.21400       55.64000
C         42.37800       59.43700       56.13500
O         43.59800       59.52600       55.98300
C         40.93400       58.51800       54.29400
N         41.63800       60.36600       56.73600
C         42.20400       61.60600       57.25800
C         43.10100       61.35000       58.46400
O         44.10400       62.04000       58.65700
C         41.10000       62.60400       57.61400
C         41.61200       63.97700       57.91200
C         41.99500       64.83000       56.87600
C         41.73300       64.41800       59.23100
C         42.48500       66.10500       57.14700
C         42.22100       65.69500       59.51700
C         42.59900       66.53800       58.47300
N         42.73700       60.35000       59.26400
C         43.52800       59.95800       60.42800
C         44.85700       59.35500       60.00300
O         45.88200       59.62000       60.62300
C         42.75000       58.98400       61.31100
C         43.26200       58.79200       62.73800
C         41.61700       59.59900       62.13900
C         42.95300       60.01300       63.59000
C         40.58100       58.54800       62.46100
C         42.64400       57.54700       63.33600
C         42.13600       60.26700       63.41000
N         44.83100       58.54200       58.94700
C         46.05800       58.06500       58.30400
C         46.85700       59.26300       57.79800
O         48.04600       59.38100       58.09200
C         45.78000       57.06600       57.13800
C         45.04500       55.82400       57.65900
C         47.08600       56.67000       56.45100
C         44.45100       54.91500       56.57300
N         46.19100       60.15600       57.06800
C         46.84700       61.32000       56.47700
C         47.69500       62.11600       57.47800
O         48.85800       62.42800       57.19600
C         45.82800       62.24000       55.80600
C         46.44300       63.43800       55.14100
C         47.22700       63.28700       54.00000
C         46.24500       64.72300       55.65800
C         47.80400       64.39500       53.37900
C         46.81500       65.83800       55.03800
C         47.59500       65.67300       53.89700
N         47.11400       62.43700       58.63800
C         47.82100       63.21300       59.66500
C         48.88900       62.40100       60.39800
O         49.69500       62.96300       61.12600
C         46.86600       63.90800       60.68600
C         46.16800       62.88100       61.58300
C         45.87600       64.81800       59.96500
C         45.32200       63.48400       62.69000
N         48.89800       61.08800       60.19700
C         49.92000       60.23300       60.78900
C         50.99600       59.79500       59.79900
O         51.75800       58.86100       60.07300
C         49.27900       59.02300       61.45900
C         48.67800       59.36200       62.79200
O         49.39000       59.59100       63.76400
N         47.36100       59.40200       62.85200
N         51.06300       60.48600       58.66100
C         52.03800       60.18400       57.61100
C         53.49000       60.56100       57.97000
O         53.88100       60.56300       59.14400
C         51.60500       60.82300       56.28400
C         50.99500       59.94800       55.17300
C         50.20900       58.76200       55.69500
C         50.13200       60.78100       54.22700
N         54.28000       60.88000       56.94700
C         55.72000       61.11100       57.09400
C         56.44700       60.35800       55.98600
O         56.04800       59.24000       55.60900
N         57.50600       60.96800       55.45300
C         58.25600       60.38300       54.32300
C         59.35600       59.39400       54.77300
O         59.96800       58.70300       53.94400
C         58.83000       61.48800       53.41600
O         59.64700       62.39400       54.15000
N         59.58600       59.32400       56.08600
C         60.54900       58.38500       56.66800
C         59.94900       56.97300       56.84700
O         60.59400       56.08800       57.41900
C         61.07400       58.93400       58.01200
C         62.55800       58.64700       58.23100
C         59.95400       59.24800       59.01200
O         62.97800       57.47200       58.14500
O         58.79700       59.48600       58.59400
O         63.30900       59.60700       58.50400
O         60.24300       59.26600       60.22700
N         58.73500       56.77000       56.32900
C         57.91400       55.58700       56.61800
C         58.42700       54.28600       55.99700
O         58.73300       54.23600       54.80400
C         56.48100       55.84400       56.15800
C         55.45400       54.89100       56.74200
S         53.81200       55.15000       56.06100
C         53.39500       56.76800       56.69900
N         58.50300       53.23400       56.81300
C         58.95500       51.92100       56.35100
C         57.82800       51.16000       55.65900
O         56.64700       51.48700       55.83200
C         59.49800       51.09100       57.51800
O         58.45600       50.67200       58.38100
N         58.19400       50.14100       54.88300
C         57.20700       49.30900       54.18800
C         56.30800       48.57200       55.18900
O         55.09500       48.47100       54.97800
C         57.87300       48.36200       53.15000
C         56.93800       47.23000       52.73200
C         58.30400       49.15900       51.92600
N         56.89700       48.09500       56.28600
C         56.12800       47.46300       57.36700
C         55.02000       48.39800       57.88100
O         53.84300       48.00500       57.94300
C         57.03900       46.96500       58.53200
C         56.21300       46.62900       59.77900
C         57.85200       45.74800       58.09700
N         55.39600       49.63200       58.22100
C         54.42200       50.61500       58.68400
C         53.35700       50.93300       57.61600
O         52.16000       50.98700       57.92400
C         55.11300       51.88700       59.17200
C         54.19600       52.77200       59.98900
C         54.85500       54.04800       60.46700
O         56.02800       54.32000       60.17200
N         54.09600       54.84800       61.21500
N         53.80000       51.13100       56.37300
C         52.89700       51.38800       55.25800
C         51.88500       50.27600       55.09600
O         50.69800       50.53700       54.91800
N         52.35700       49.03100       55.16500
C         51.47400       47.86000       55.09400
C         50.52300       47.77200       56.28700
O         49.38300       47.34200       56.13500
C         52.27200       46.55800       54.95400
C         53.03000       46.31400       53.63800
C         53.88300       45.05200       53.73000
C         52.09500       46.24100       52.44700
N         50.98700       48.18500       57.46600
C         50.11200       48.28900       58.62600
C         48.95200       49.24400       58.40200
O         47.81900       48.93300       58.76000
C         50.89400       48.68800       59.86700
C         51.73500       47.55900       60.40000
O         51.49800       46.39400       60.08600
N         52.72500       47.89300       61.22000
N         49.23300       50.39700       57.80200
C         48.18500       51.34600       57.44200
C         47.21200       50.73600       56.44100
O         45.99300       50.89800       56.57800
C         48.77200       52.63900       56.87500
C         49.29100       53.57700       57.91700
C         50.63600       53.91500       57.95400
C         48.43500       54.12900       58.86700
C         51.12600       54.79600       58.93100
C         48.91700       55.00700       59.84700
C         50.26100       55.33700       59.87700
N         47.75000       50.03500       55.44100
C         46.91600       49.34900       54.44500
C         45.97700       48.34000       55.10700
O         44.79200       48.29200       54.79600
C         47.77600       48.67300       53.36900
C         47.07000       48.07700       52.14100
C         46.05100       49.03600       51.50500
C         48.10300       47.66700       51.12100
N         46.51800       47.55300       56.03300
C         45.72700       46.60700       56.80600
C         44.68700       47.32200       57.64500
O         43.51700       46.91900       57.68500
N         45.11600       48.39600       58.30100
C         44.23600       49.20500       59.13300
C         43.02000       49.74600       58.37700
O         41.95300       49.90000       58.96300
C         45.01800       50.34600       59.76700
N         43.18100       50.02800       57.08300
C         42.09700       50.60500       56.28000
C         41.01000       49.60500       55.88600
O         39.87400       49.99100       55.60000
C         42.65600       51.27000       55.02300
O         43.06700       50.31600       54.06000
N         41.36200       48.32600       55.87900
C         40.47200       47.30200       55.37100
C         39.14500       47.18000       56.12600
O         38.09600       47.12300       55.48100
C         41.19500       45.96000       55.26900
C         42.42300       45.93000       54.35300
C         43.04000       44.54600       54.36500
C         42.06500       46.35300       52.93600
N         39.17600       47.12600       57.47900
C         37.90800       46.98000       58.20900
C         36.81200       47.98600       57.82000
O         35.71200       47.57400       57.44400
C         38.32900       47.13300       59.67200
C         39.71100       46.61600       59.68400
C         40.31600       47.13300       58.41300
N         37.10000       49.28300       57.88000
C         36.09300       50.27000       57.48200
C         35.76800       50.21400       55.97400
O         34.61800       50.42000       55.57300
C         36.45000       51.71200       57.92500
C         35.22500       52.62100       57.80300
C         37.64100       52.27400       57.13100
C         33.99400       52.07600       58.47700
N         36.77800       49.93200       55.15200
C         36.57700       49.83100       53.72300
C         35.47800       48.81600       53.44300
O         34.50500       49.12900       52.75300
C         37.86800       49.44000       53.02300
N         35.59900       47.61600       54.01000
C         34.70800       46.52400       53.60100
C         33.43900       46.33700       54.42900
O         32.39600       45.97700       53.87600
C         35.49200       45.23800       53.30500
C         36.38000       45.38400       52.11600
C         37.73400       45.64900       52.27700
C         35.84100       45.37100       50.82200
C         38.55900       45.83400       51.17200
C         36.65200       45.56100       49.70900
C         38.02000       45.79200       49.88600
N         33.49500       46.61400       55.72800
C         32.25600       46.66700       56.49000
C         31.45500       47.87000       55.98300
O         30.23700       47.78400       55.81200
C         32.47900       46.73700       58.01300
O         33.27300       47.88400       58.31900
C         33.17500       45.47400       58.53400
N         32.15500       48.96800       55.69900
C         31.55500       50.13800       55.05400
C         30.83400       49.79100       53.75700
O         29.64600       50.13800       53.59400
N         31.52900       49.09700       52.84400
C         30.93200       48.71100       51.56900
C         29.66400       47.89900       51.76900
O         28.60300       48.27000       51.25800
C         31.92000       47.93600       50.68900
C         31.42600       47.38500       49.33500
C         30.98800       48.49600       48.39700
C         32.49100       46.53500       48.68100
N         29.76500       46.80600       52.52300
C         28.65000       45.86400       52.62200
C         27.52300       46.34200       53.53600
O         26.34400       46.19400       53.19400
C         29.13400       44.45800       52.97800
C         29.92800       43.80400       51.87800
C         31.31600       43.92300       51.83300
C         29.28800       43.08200       50.87000
C         32.05500       43.31700       50.81000
C         30.02000       42.46900       49.84700
C         31.39700       42.58600       49.81300
N         27.86400       46.94900       54.67000
C         26.81800       47.45300       55.54600
C         26.06900       48.59600       54.86500
O         24.84800       48.66400       54.95100
C         27.35100       47.85400       56.92700
O         28.21300       48.96700       56.84000
N         26.79300       49.47000       54.16600
C         26.16300       50.53600       53.38800
C         25.06900       50.00600       52.46000
O         23.91600       50.47400       52.49200
N         25.43200       49.02100       51.63500
C         24.47600       48.35900       50.75100
C         23.30000       47.75400       51.53900
O         22.13200       48.00600       51.20400
C         25.17600       47.30100       49.85900
C         26.08800       48.01900       48.86100
C         24.14700       46.40300       49.15900
C         27.15700       47.16900       48.25100
N         23.61600       46.97600       52.58300
C         22.59500       46.27200       53.35800
C         21.66800       47.27000       54.02900
O         20.44300       47.09400       54.01200
C         23.22400       45.34100       54.38300
N         22.25400       48.32700       54.59400
C         21.49100       49.36900       55.26900
C         20.57300       50.13200       54.31300
O         19.43200       50.45600       54.66900
C         22.43100       50.34100       55.97200
C         21.74900       51.24900       56.94100
C         22.73000       52.01600       57.76100
O         23.71700       52.55200       57.24100
N         22.47600       52.08900       59.05900
N         21.07800       50.41900       53.11200
C         20.27400       51.02700       52.05000
C         19.00800       50.23400       51.73700
O         17.92800       50.82200       51.60100
N         19.14300       48.90500       51.63600
C         18.00800       48.00200       51.44300
C         16.95600       48.11200       52.55800
O         15.75600       48.18300       52.26200
C         18.48100       46.56000       51.31400
C         19.07400       46.24900       49.96800
C         19.73900       44.89300       49.95100
C         20.25000       44.58900       48.56000
N         21.40600       43.63600       48.59000
N         17.40000       48.13200       53.82300
C         16.48000       48.27500       54.95300
C         15.84700       49.66300       54.95500
O         14.64400       49.78900       55.16800
C         17.14900       48.00600       56.31000
C         16.10100       47.94600       57.40600
C         17.92300       46.71000       56.26500
N         16.65300       50.69700       54.71200
C         16.13900       52.06200       54.67300
C         15.07400       52.18900       53.57600
O         13.98100       52.71300       53.81800
C         17.26800       53.05500       54.46400
N         15.38400       51.68600       52.38000
C         14.41600       51.65700       51.29200
C         13.11200       50.96600       51.72100
O         12.01500       51.43500       51.39100
C         15.00900       50.97000       50.09000
N         13.22600       49.86100       52.45900
C         12.05800       49.14900       52.95600
C         11.28200       50.00400       53.96700
O         10.05700       49.93300       54.04200
C         12.47200       47.83300       53.57200
N         11.99900       50.81400       54.73900
C         11.38400       51.73000       55.68700
C         10.54600       52.80500       55.00700
O          9.58900       53.32200       55.62200
N         10.89900       53.15300       53.75700
C         10.10300       54.09100       52.94900
C          8.64300       53.61300       52.81300
O          7.71500       54.42700       52.73500
C         10.74400       54.36600       51.55100
C         12.07800       55.11900       51.69900
C          9.78800       55.13300       50.61800
C         11.97800       56.59200       52.07900
N          8.43900       52.29800       52.81400
C          7.09100       51.74700       52.68200
C          6.30200       51.84400       53.99200
O          5.07200       51.96800       53.96400
C          7.08900       50.31500       52.11000
C          8.13200       50.03400       50.98700
C          6.93000       50.22800       50.59200
C          8.18300       51.08200       49.85900
C          5.61600       50.81000       50.09700
O          7.15200       51.50100       49.33400
O          4.53700       50.30600       50.40700
N          9.39800       51.48600       49.47800
N          5.70400       51.88100       49.32100
N          6.99800       51.80500       55.13200
C          6.35100       52.08100       56.42000
C          5.87400       53.52000       56.37600
O          4.73800       53.82700       56.70800
C          7.30000       51.90000       57.62300
C          7.76400       50.44700       57.74000
C          6.62300       52.35900       58.92200
C          8.87300       50.23600       58.75500
N          6.76100       54.39600       55.93400
C          6.45500       55.80600       55.76400
C          5.24000       56.02500       54.86600
O          4.39300       56.85600       55.16500
C          7.67800       56.50500       55.18300
C          7.81300       58.00700       55.28200
C          7.55700       58.45500       56.70800
C          9.21300       58.35800       54.85200
N          5.15900       55.26100       53.77700
C          4.05200       55.35200       52.81700
C          2.69100       54.95700       53.41000
O          1.68200       55.59100       53.11700
C          4.35100       54.51300       51.60200
N          2.67500       53.92100       54.25000
C          1.43800       53.31900       54.73700
C          1.08200       53.74400       56.15700
O         -0.08900       53.96500       56.47400
C          1.54000       51.79600       54.68600
C          1.61800       51.19600       53.28000
C          0.23100       50.95900       52.69000
C          0.28500       49.99500       51.51200
N          0.89900       50.65100       50.32400
N          2.08900       53.83200       57.01900
C          1.87800       54.16900       58.42700
C          2.86900       55.23800       58.84400
O          3.78300       54.95000       59.61500
C          2.09000       52.94100       59.31800
C          1.28400       51.72600       58.96300
C          0.02200       51.65600       59.75500
C         -0.64300       50.34900       59.48900
N         -1.96100       50.33600       60.10600
N          2.69500       56.47500       58.34800
C          3.71000       57.50500       58.58100
C          3.98700       57.77100       60.07500
O          5.09100       58.19200       60.44400
C          3.13900       58.73700       57.87000
C          1.70200       58.43900       57.65500
C          1.56300       56.97700       57.55300
N          3.01200       57.48400       60.92700
C          3.17800       57.70300       62.36000
C          4.16800       56.72600       62.98300
O          4.58500       56.90700       64.12000
C          1.82800       57.66800       63.09900
C          1.15500       56.30100       63.17500
C          0.37800       55.90900       61.92200
O         -0.44700       54.98800       62.02800
O          0.57100       56.49400       60.83700
N          4.54500       55.69500       62.24200
C          5.45900       54.69400       62.77300
C          6.83200       54.77800       62.13200
O          7.61400       53.82900       62.19300
C          4.88100       53.29700       62.58600
C          3.69000       53.02800       63.44100
N          3.79200       52.77300       64.78900
C          2.37200       52.97500       63.14400
C          2.58700       52.57500       65.28700
N          1.70800       52.69000       64.30900
N          7.13000       55.93200       61.54000
C          8.35100       56.11600       60.75800
C          9.64100       55.84400       61.54300
O         10.65600       55.43000       60.95300
C          8.37700       57.50000       60.14100
N          9.59500       56.07500       62.85800
C         10.73900       55.82100       63.73800
C         11.13400       54.34800       63.74100
O         12.32400       54.01800       63.81500
C         10.46200       56.28800       65.18000
O         10.06300       57.65900       65.15000
C         11.70500       56.15500       66.06500
N         10.13500       53.47400       63.65500
C         10.37600       52.03700       63.56300
C         11.25400       51.68900       62.35800
O         12.19400       50.90100       62.48500
C          9.05300       51.27400       63.51900
C          8.26700       51.37500       64.80600
C          6.93100       50.68100       64.68100
C          6.23200       50.59700       66.01800
N          5.96200       51.92300       66.62000
N         10.94700       52.30100       61.21100
C         11.74900       52.17300       59.99500
C         13.19000       52.61800       60.19200
O         14.13600       51.94300       59.74200
N         13.35700       53.75100       60.87200
C         14.68000       54.23900       61.23600
C         15.44000       53.22800       62.11400
O         16.61600       52.95300       61.86900
C         14.59200       55.62500       61.91200
C         14.07000       56.64500       60.90400
C         15.95700       56.06900       62.45900
C         13.64000       57.93200       61.52400
N         14.76300       52.66300       63.11300
C         15.41100       51.72500       64.02400
C         15.85000       50.45600       63.29900
O         16.99000       50.00900       63.48700
C         14.56300       51.43300       65.28600
C         14.47200       52.70300       66.15200
C         15.17200       50.30300       66.10100
C         13.34300       52.69700       67.16200
N         14.98400       49.89800       62.44900
C         15.36700       48.71300       61.67100
C         16.65300       48.98100       60.90900
O         17.56600       48.15200       60.93000
C         14.27100       48.26200       60.69300
C         13.04800       47.68600       61.35900
C         11.77000       48.07200       60.94200
C         13.16400       46.76600       62.39900
C         10.64100       47.55300       61.54500
C         12.03500       46.24800       63.01500
C         10.77200       46.63900       62.58600
N         16.72200       50.14500       60.26000
C         17.87600       50.51700       59.44800
C         19.09500       50.77700       60.31800
O         20.21700       50.41100       59.95900
C         17.55900       51.72700       58.60200
N         18.86300       51.38700       61.47200
C         19.92800       51.68900       62.42000
C         20.66400       50.42800       62.88500
O         21.87700       50.46300       63.09500
C         19.37800       52.46400       63.61500
N         19.94200       49.31500       63.02200
C         20.55800       48.06400       63.46100
C         21.72800       47.63500       62.58400
O         22.68200       47.04300       63.07700
C         19.52400       46.94200       63.55500
C         18.41400       47.18700       64.56900
S         18.99800       47.53600       66.24000
C         19.09400       49.34100       66.29200
N         21.65600       47.95200       61.29100
C         22.72700       47.61500       60.36000
C         23.94800       48.49500       60.61600
O         25.08100       48.07600       60.37500
C         22.27000       47.69700       58.88300
C         23.36600       47.17400       57.93400
C         20.98600       46.89300       58.68500
N         23.71200       49.69700       61.13800
C         24.78100       50.64600       61.44600
C         25.90500       50.03500       62.29500
O         27.08300       50.31900       62.05800
C         24.20000       51.88700       62.13000
C         25.16700       53.05800       62.29100
C         25.56600       53.70700       60.95800
O         24.93600       53.41400       59.90700
O         26.51500       54.52600       60.96100
N         25.53200       49.18800       63.25900
C         26.47000       48.55900       64.19200
C         27.78200       48.10000       63.54300
O         28.86800       48.34800       64.07700
C         25.81300       47.34300       64.88200
O         24.52200       47.71800       65.36500
C         26.66600       46.81900       66.05200
N         27.67000       47.45700       62.38600
C         28.79700       46.75000       61.78000
C         29.73500       47.68900       61.06000
O         30.91600       47.38500       60.91700
C         28.28100       45.56800       60.94100
C         27.31500       44.83500       61.81300
C         25.93800       45.02300       61.68600
C         27.78600       44.07600       62.87600
C         25.05800       44.40400       62.55400
C         26.92800       43.46100       63.74800
C         25.56500       43.62700       63.58700
O         24.71600       43.01400       64.47100
N         29.20600       48.84500       60.65600
C         30.02900       49.94800       60.17000
C         30.80800       50.56600       61.34700
O         31.99800       50.87800       61.21900
C         29.17000       51.00200       59.45900
N         30.14400       50.71900       62.49300
C         30.77900       51.28200       63.67900
C         31.89200       50.36200       64.18500
O         33.00100       50.82700       64.49400
C         29.74500       51.62000       64.79900
C         28.82100       52.75400       64.33100
C         30.45400       52.05000       66.09600
C         27.58600       52.96100       65.18800
N         31.60600       49.06200       64.25000
C         32.61500       48.08300       64.67000
C         33.80900       48.09200       63.71100
O         34.96700       48.06200       64.15200
C         32.02500       46.67400       64.79100
C         30.94000       46.42300       65.84600
C         30.48400       44.97000       65.75500
C         31.37100       46.79100       67.27800
N         33.52000       48.15600       62.41000
C         34.55600       48.31300       61.39500
C         35.36000       49.58800       61.58900
O         36.59600       49.56800       61.51200
N         34.65900       50.69400       61.84400
C         35.29800       51.98000       62.10200
C         36.23000       51.90900       63.31800
O         37.38000       52.34600       63.23000
C         34.24700       53.07900       62.27600
C         34.82100       54.43000       62.63600
C         35.45700       55.21400       61.67500
C         34.71400       54.93000       63.94000
C         35.98400       56.47400       62.00800
C         35.24300       56.18700       64.27900
C         35.87600       56.95500       63.31300
N         35.73400       51.34800       64.43000
C         36.50300       51.24400       65.67800
C         37.79200       50.41700       65.49000
O         38.87100       50.83400       65.93100
C         35.62000       50.74500       66.88600
C         36.47000       50.31500       68.07900
C         34.63600       51.82600       67.32300
N         37.68800       49.27200       64.81600
C         38.87400       48.45200       64.52500
C         39.88600       49.18000       63.62500
O         41.09100       49.18400       63.92000
C         38.50900       47.04600       63.96000
C         37.78400       46.21200       65.02800
C         39.74800       46.29600       63.44400
C         38.58700       45.92300       66.29400
N         39.40300       49.80100       62.54900
C         40.25800       50.64400       61.70500
C         40.93700       51.76200       62.49400
O         42.12800       52.00900       62.31300
C         39.46800       51.24600       60.55200
O         39.36600       50.32600       59.48700
N         40.17200       52.42400       63.36800
C         40.67300       53.50500       64.21600
C         41.83800       53.03000       65.08100
O         42.90800       53.64200       65.06500
C         39.54100       54.07200       65.08600
C         39.88900       55.35700       65.78200
C         39.61700       56.58400       65.18000
C         40.47900       55.34700       67.04600
C         39.94100       57.78300       65.81900
C         40.80000       56.54000       67.69400
C         40.53300       57.75900       67.07400
N         41.63500       51.93600       65.81500
C         42.67800       51.38800       66.68300
C         43.92100       51.00100       65.90100
O         45.03500       51.25800       66.33400
C         42.16300       50.17500       67.46500
C         41.10700       50.38800       68.55000
C         40.67300       49.04600       69.10600
C         41.62100       51.30000       69.66200
N         43.71800       50.38400       64.74400
C         44.82200       49.93500       63.89900
C         45.61900       51.07200       63.24800
O         46.83500       50.95200       63.07600
C         44.32300       48.95800       62.84000
C         44.01000       47.54400       63.32500
C         43.36000       46.74000       62.21300
C         45.27400       46.85900       63.81200
N         44.94100       52.16400       62.89000
C         45.61600       53.35700       62.36800
C         46.52000       53.97600       63.42900
O         47.67800       54.27700       63.14600
C         44.61900       54.40300       61.82800
C         45.31700       55.72200       61.52800
C         43.95200       53.87700       60.57300
N         45.98900       54.14600       64.64400
C         46.74900       54.68500       65.77400
C         47.92200       53.80000       66.17500
O         48.88600       54.27600       66.76400
C         45.85000       54.88900       66.99200
C         44.75500       55.95500       66.96800
C         44.19500       56.09300       68.37100
C         45.26200       57.29900       66.45600
N         47.84000       52.51600       65.85500
C         48.87200       51.56900       66.24100
C         49.77700       51.11100       65.09100
O         50.67700       50.30800       65.29600
C         48.22500       50.38200       66.95500
C         49.23000       49.50500       67.66100
C         47.90300       50.68200       68.41300
O         49.51600       48.39500       67.21000
O         48.52200       50.12900       69.32100
N         49.77800       49.99500       68.76900
N         46.94000       51.56800       68.64100
N         49.54900       51.64300       63.89100
C         50.31100       51.25500       62.69200
C         51.78700       51.61000       62.81200
O         52.65400       50.89600       62.29800
C         49.72100       51.89700       61.45700
O         52.14300       52.62000       63.42900
N         60.02000       40.94200       49.29300
C         58.90000       41.30000       50.21600
C         58.77100       40.29800       51.34900
O         58.87300       40.65900       52.52200
C         57.56800       41.38500       49.46100
C         56.32600       41.43300       50.35800
S         56.15200       42.97100       51.28200
C         54.86700       43.79000       50.34500
N         58.52500       39.04100       50.98900
C         58.36300       37.97700       51.96700
C         59.65500       37.79300       52.75600
O         59.62500       37.60500       53.97100
C         57.94800       36.67800       51.27300
C         57.09000       35.74500       52.11600
S         55.69200       36.52500       52.96500
C         56.33100       36.58900       54.64800
N         60.78200       37.88000       52.05300
C         62.09600       37.84200       52.67300
C         62.31000       39.04000       53.60800
O         62.93000       38.90500       54.66800
C         63.17900       37.80600       51.59300
C         64.51400       37.30700       52.12000
O         65.24700       38.08800       52.77100
O         64.83200       36.12700       51.87200
N         61.79400       40.20200       53.20700
C         61.88500       41.42900       54.00500
C         61.08500       41.33200       55.30800
O         61.60000       41.65600       56.37500
C         61.44700       42.64300       53.17000
C         61.08700       43.89400       53.95900
C         62.07900       44.71500       54.50200
C         59.75000       44.26600       54.14200
C         61.75200       45.86700       55.21700
C         59.41300       45.41300       54.85700
C         60.42000       46.20700       55.39100
O         60.09600       47.34300       56.09800
N         59.83500       40.88000       55.21400
C         58.97400       40.71600       56.39000
C         59.56300       39.71000       57.37000
O         59.55400       39.93500       58.58000
C         57.55800       40.29300       55.98800
C         56.72800       41.29200       55.18600
C         55.40300       40.66100       54.77200
C         56.50700       42.58100       55.97000
N         60.07300       38.60400       56.83300
C         60.75000       37.58700       57.63100
C         61.92600       38.20000       58.41100
O         61.93800       38.16300       59.64300
C         61.18800       36.37000       56.74800
C         59.96700       35.51800       56.37200
C         62.24800       35.51500       57.45600
C         60.11300       34.73400       55.07300
N         62.87400       38.80100       57.69100
C         64.12900       39.28600       58.28200
C         64.01000       40.58200       59.10400
O         64.94500       40.94300       59.81700
C         65.24700       39.44300       57.20800
O         64.76100       40.23500       56.11800
C         65.69400       38.08300       56.67600
N         62.87400       41.27300       59.00500
C         62.65400       42.52800       59.74400
C         61.56400       42.40100       60.80500
O         61.05600       43.41300       61.30100
C         62.29200       43.67900       58.79200
C         63.32000       43.96300       57.71100
C         64.67500       44.32700       58.26300
O         64.81400       45.27600       59.03300
N         65.69000       43.57400       57.86600
N         61.21800       41.15900       61.14800
C         60.07900       40.85000       62.03300
C         58.79200       41.63100       61.70200
O         58.18400       42.28100       62.56300
C         60.46700       40.97900       63.51700
C         61.27600       39.79500       64.00700
O         62.47600       39.70100       63.75300
N         60.62200       38.88100       64.71200
N         58.38700       41.55800       60.43900
C         57.17300       42.21700       59.99100
C         55.96000       41.31800       60.09800
O         55.02800       41.45700       59.31900
N         55.97500       40.40000       61.06400
C         54.84100       39.50900       61.32700
C         53.58500       40.26200       61.74000
O         52.46300       39.80100       61.51800
N         53.79500       41.42500       62.34600
C         52.74100       42.37100       62.69800
C         51.71500       42.54900       61.55300
O         50.50100       42.58800       61.80300
C         53.40500       43.69900       63.12300
C         52.48100       44.83100       63.54300
C         52.45200       44.88300       63.34200
S         53.34000       46.08500       64.52800
S         51.27100       44.68800       64.69100
C         54.83300       46.40700       63.57800
C         52.27700       45.12400       66.10600
N         52.20300       42.62400       60.31100
C         51.33500       42.82600       59.15000
C         50.27000       41.72700       59.06400
O         49.10200       42.01300       58.77600
C         52.12400       42.99700       57.80100
C         53.19600       44.06900       57.92800
C         51.18200       43.17400       56.62500
C         52.70800       41.67400       57.31200
C         53.07000       44.18100       57.88500
N         50.66300       40.48700       59.34500
C         49.72200       39.37100       59.29300
C         48.73100       39.37500       60.44700
O         47.59600       38.92200       60.29000
C         50.45300       38.03600       59.20000
C         51.30000       37.91300       57.97600
C         52.69000       37.96200       58.06700
C         50.71000       37.78500       56.72100
C         53.48000       37.86900       56.93000
C         51.49000       37.69200       55.57800
C         52.88200       37.73400       55.68300
N         49.16400       39.89100       61.59700
C         48.29000       40.04800       62.76400
C         47.26100       41.15300       62.52900
O         46.10500       41.03300       62.94700
C         49.10100       40.33400       64.00800
N         47.69200       42.22700       61.86200
C         46.78900       43.30100       61.45100
C         45.76500       42.75300       60.46200
O         44.56900       42.98900       60.61100
C         47.54700       44.48900       60.83500
C         46.57200       45.51700       60.27000
C         48.45900       45.12800       61.87800
N         46.23500       42.00200       59.47000
C         45.34600       41.33600       58.52500
C         44.38400       40.38700       59.22900
O         43.23500       40.23400       58.80700
C         46.15100       40.58300       57.47000
C         45.40500       40.05200       56.24900
C         46.78400       41.44900       56.38100
C         44.86200       41.19600       55.40600
C         47.63800       40.59000       55.47500
C         46.32000       39.16400       55.42600
C         45.72000       42.19400       55.58500
N         44.86700       39.76600       60.30700
C         44.07700       38.84500       61.10800
C         42.89600       39.57400       61.72800
O         41.76000       39.10300       61.67500
C         44.93300       38.20700       62.17600
N         43.16700       40.73500       62.30600
C         42.11300       41.55300       62.88200
C         41.10300       41.99500       61.82700
O         39.89600       41.92400       62.06500
C         42.70400       42.75400       63.58900
C         43.47800       42.37900       64.80700
S         44.28500       43.81400       65.54200
C         42.85900       44.86200       65.86600
N         41.60000       42.43300       60.66900
C         40.74400       42.84700       59.56200
C         39.82000       41.69900       59.14500
O         38.60800       41.88300       59.03800
C         41.57400       43.33500       58.38300
N         40.39400       40.51100       58.95400
C         39.63800       39.32400       58.53600
C         38.51700       38.95300       59.51200
O         37.36700       38.80500       59.09900
C         40.57700       38.12400       58.28000
O         41.51200       37.99700       59.35500
O         41.54800       38.50800       57.30600
C         41.32700       38.29900       56.98800
C         39.82700       36.92600       57.76300
N         38.85000       38.80800       60.79400
C         37.85500       38.51300       61.82300
C         36.69600       39.52300       61.76900
O         35.52300       39.13400       61.77800
C         38.50200       38.50100       63.20800
N         37.03700       40.81100       61.68900
C         36.05400       41.88700       61.69600
C         35.20000       41.90600       60.43700
O         33.96900       41.91900       60.52600
C         36.73300       43.25700       61.86300
O         37.61600       43.21600       62.99400
C         35.68600       44.36600       62.07600
N         35.85900       41.89600       59.27500
C         35.18900       42.09300       57.97800
C         34.14900       41.02200       57.66900
O         32.97800       41.34400       57.42500
C         36.20100       42.24200       56.81200
C         36.90800       43.59500       56.91600
C         35.50700       42.11200       55.45500
C         38.26600       43.62500       56.27400
N         34.56500       39.75800       57.69800
C         33.69100       38.69100       57.24400
C         32.52200       38.41600       58.18100
O         31.39300       38.24200       57.71600
C         34.50000       37.45800       56.87100
C         35.38500       37.69500       55.69200
C         36.74000       37.98800       55.87000
C         34.84900       37.70500       54.39700
C         37.56800       38.24300       54.77700
C         35.66100       37.96000       53.28800
C         37.02900       38.23000       53.47500
N         32.77600       38.41600       59.49200
C         31.70400       38.29800       60.47100
C         30.77400       39.50500       60.35200
O         29.54700       39.35800       60.41000
C         32.25700       38.17300       61.89000
O         32.94700       39.34700       62.27800
N         31.35400       40.68900       60.16600
C         30.56900       41.90400       59.96600
C         29.64700       41.83000       58.75800
O         28.48500       42.22600       58.83400
N         30.16800       41.32100       57.64200
C         29.38000       41.18100       56.42400
C         28.21500       40.21900       56.68600
O         27.07000       40.50300       56.32200
C         30.23500       40.70400       55.22500
C         31.23100       41.77900       54.80000
C         29.34700       40.33200       54.03000
C         32.27700       41.29300       53.80900
N         28.51200       39.09000       57.33200
C         27.49500       38.10500       57.71400
C         26.35300       38.73500       58.50000
O         25.17500       38.54700       58.16200
N         26.69600       39.49500       59.54300
C         25.69700       40.21900       60.31500
C         24.98000       41.29800       59.49400
O         23.74500       41.38000       59.53600
C         26.31800       40.82500       61.56100
O         26.44700       39.84200       62.56600
N         25.73700       42.11000       58.74500
C         25.13600       43.18900       57.96400
C         24.07400       42.60300       57.02600
O         22.94500       43.10600       56.95300
C         26.19300       43.96600       57.19500
N         24.42300       41.51600       56.34200
C         23.48900       40.85500       55.44700
C         22.30400       40.24000       56.18800
O         21.15300       40.48400       55.82300
C         24.21300       39.81300       54.60800
C         24.99200       40.44300       53.49000
C         25.73800       39.41400       52.70400
C         26.13300       39.98400       51.35500
N         24.92800       40.21000       50.50400
N         22.58900       39.46400       57.23500
C         21.55400       38.80000       58.01500
C         20.60100       39.77100       58.69500
O         19.37300       39.64400       58.56500
N         21.16600       40.73700       59.42100
C         20.38500       41.78400       60.08100
C         19.62300       42.58900       59.02900
O         18.45300       42.93100       59.23600
C         21.28100       42.71000       60.95800
C         20.51100       43.91500       61.47400
C         21.87800       41.93600       62.10500
N         20.28200       42.86200       57.90500
C         19.66000       43.58900       56.80000
C         18.43000       42.89000       56.23400
O         17.34300       43.47600       56.13800
N         18.60100       41.62300       55.87300
C         17.49400       40.82000       55.37200
C         16.31400       40.75200       56.35200
O         15.16200       40.94100       55.94900
C         17.95900       39.42100       55.01500
C         16.83000       38.56300       54.51200
S         17.35700       36.91500       54.01100
C         18.00900       37.24900       52.35600
N         16.60000       40.48300       57.62500
C         15.54600       40.37700       58.63400
C         14.87300       41.73000       58.81900
O         13.64900       41.80700       58.93500
C         16.07400       39.82100       59.97500
O         16.77800       38.59600       59.72800
C         14.93500       39.52900       60.93100
N         15.68000       42.79000       58.81500
C         15.17200       44.15400       58.83500
C         14.16100       44.44600       57.74000
O         13.12200       45.04800       58.00300
N         14.45700       44.02000       56.51700
C         13.54800       44.21700       55.38200
C         12.21200       43.52500       55.61800
O         11.15600       44.10500       55.36700
C         14.17000       43.70000       54.08300
C         15.43000       44.41300       53.67900
C         16.07900       43.78100       52.47400
O         15.41500       43.67600       51.41500
O         17.26300       43.39500       52.57600
N         12.26700       42.28400       56.10000
C         11.06600       41.53100       56.43200
C         10.29200       42.20500       57.57400
O          9.06000       42.31400       57.52700
C         11.42800       40.11900       56.80200
N         11.02000       42.66300       58.59000
C         10.42100       43.32000       59.74400
C          9.74000       44.62800       59.32900
O          8.62700       44.93400       59.79700
C         11.47400       43.56300       60.81300
N         10.40300       45.38400       58.44200
C          9.83600       46.61600       57.88100
C          8.52600       46.32900       57.15500
O          7.53300       47.00900       57.37900
C         10.82400       47.29300       56.95100
N          8.52800       45.30400       56.30600
C          7.33700       44.90700       55.55500
C          6.16800       44.59900       56.50000
O          5.05100       45.08300       56.28500
C          7.64500       43.73000       54.66200
N          6.43800       43.82500       57.55800
C          5.42900       43.50100       58.55700
C          4.90100       44.75300       59.24300
O          3.70200       44.85900       59.51100
C          5.97900       42.52800       59.60500
C          5.04600       42.19500       60.78400
C          3.74500       41.53500       60.33000
C          5.74200       41.32300       61.81300
N          5.80100       45.69200       59.52500
C          5.45300       46.91600       60.24400
C          4.47200       47.79900       59.46500
O          3.70000       48.54500       60.07100
C          6.71600       47.70300       60.63000
O          7.57500       46.84900       61.38700
C          6.37500       48.93500       61.46100
N          4.48000       47.69300       58.13500
C          3.61700       48.52800       57.29200
C          2.14400       48.20800       57.50900
O          1.27300       49.01900       57.17500
C          3.92700       48.41500       55.77300
O          3.48300       47.14600       55.28900
C          5.41800       48.58700       55.47200
N          1.86000       47.03200       58.05800
C          0.47800       46.67600       58.35000
C          0.21700       46.33600       59.82500
O         -0.88200       46.58500       60.32900
C         -0.01500       45.56500       57.42700
O          0.38200       44.31400       57.92100
N          1.20800       45.78000       60.51900
C          1.04200       45.47900       61.94100
C          2.20000       46.03800       62.75900
O          3.08000       45.27700       63.18000
C          0.91800       43.97600       62.16600
C         -0.22500       43.32300       61.43100
C         -0.04800       41.83000       61.34000
O         -0.17700       41.12300       62.32900
N          0.26400       41.33800       60.14400
N          2.20600       47.36800       62.99600
C          3.30700       48.01700       63.70800
C          3.41100       47.63200       65.18000
O          4.46700       47.79800       65.78600
C          2.98700       49.50100       63.57000
C          1.55000       49.55500       63.35600
C          1.18000       48.34100       62.59200
N          2.33700       47.09500       65.74100
C          2.32700       46.73200       67.15400
C          3.24300       45.55000       67.48100
O          3.53800       45.29400       68.64400
C          0.89900       46.46400       67.63800
C          0.27300       45.18200       67.09000
C         -0.30100       45.32600       65.68600
O         -0.73700       44.29200       65.13400
O         -0.32900       46.45500       65.13900
N          3.70100       44.84700       66.45200
C          4.56300       43.68100       66.62500
C          6.04500       44.03800       66.53300
O          6.90400       43.15600       66.46300
C          4.18000       42.61600       65.60200
C          2.82300       42.02700       65.90500
C          2.28800       41.19600       64.78300
C          0.96800       40.57800       65.19000
N          0.57100       39.50600       64.23400
N          6.32300       45.34000       66.56500
C          7.66200       45.90400       66.41500
C          8.73300       45.29700       67.33200
O          9.78400       44.86700       66.85600
C          7.58900       47.42200       66.60300
C          8.92400       48.10600       66.60100
C          9.68800       48.18100       65.43800
C          9.41400       48.69300       67.76200
C         10.92100       48.82100       65.43500
C         10.65100       49.33600       67.76900
C         11.40300       49.40200       66.60200
N          8.46700       45.27000       68.63800
C          9.42600       44.75800       69.61800
C          9.88800       43.34500       69.31100
O         11.09200       43.04400       69.32700
N          8.92400       42.47600       69.01700
C          9.20800       41.07800       68.71700
C          9.99500       40.97700       67.41100
O         10.95400       40.21200       67.32300
C          7.91900       40.24600       68.67000
C          6.97600       40.40700       69.88800
C          7.29600       39.96100       70.04100
C          5.85500       41.44500       69.68200
C          7.97400       38.83000       70.79500
O          4.71200       41.09000       69.38300
O          9.12000       38.94400       71.21700
N          6.18200       42.72000       69.85200
N          7.25500       37.73600       70.98100
N          9.60800       41.77700       66.41500
C         10.31900       41.85500       65.13200
C         11.76200       42.29400       65.32700
O         12.67100       41.77200       64.67500
C          9.60700       42.80800       64.18600
N         11.95500       43.24700       66.23700
C         13.27200       43.75200       66.57200
C         14.18800       42.66500       67.14400
O         15.34700       42.55700       66.73100
C         13.14900       44.93500       67.53000
C         14.34200       45.87900       67.64800
C         14.90500       46.27300       66.26500
C         13.93700       47.10600       68.44900
N         13.66300       41.85300       68.06700
C         14.42400       40.73600       68.64500
C         14.91900       39.77500       67.55200
O         16.09400       39.38700       67.53500
C         13.61300       39.97800       69.72800
C         13.41700       40.86500       70.95000
C         14.31700       38.68900       70.14300
C         12.28900       40.42800       71.83000
N         14.02200       39.41700       66.63400
C         14.37200       38.55200       65.52000
C         15.48100       39.16000       64.67200
O         16.38200       38.45100       64.22200
C         13.14800       38.23900       64.65800
C         12.17900       37.17900       65.17500
C         10.86700       37.21200       64.40900
C         12.80300       35.80000       65.09100
N         15.42900       40.47300       64.46500
C         16.46200       41.16100       63.68600
C         17.83500       41.15000       64.37400
O         18.86700       41.15500       63.70000
C         16.03900       42.59400       63.37000
C         16.83300       43.22400       62.23600
C         16.70700       44.73300       62.18700
O         16.01400       45.34000       63.00100
N         17.37900       45.34700       61.22100
N         17.84500       41.13000       65.70500
C         19.09800       41.10000       66.46500
C         19.84300       39.76000       66.40800
O         21.06800       39.73600       66.51800
C         18.86900       41.51800       67.92600
C         18.43600       42.97300       68.18200
C         18.38100       43.23500       69.67700
C         19.31600       44.01800       67.45700
N         19.12000       38.65500       66.23700
C         19.74900       37.33100       66.19200
C         20.94900       37.21300       65.22200
O         22.03500       36.79800       65.65000
C         18.70800       36.23800       65.93800
C         17.99900       35.59000       67.12800
C         18.10900       36.39900       68.42900
C         16.54600       35.31300       66.75300
N         20.77800       37.58500       63.92700
C         21.93000       37.51100       63.01600
C         22.98800       38.58200       63.30300
O         24.03900       38.60800       62.65300
C         21.31600       37.74800       61.62900
C         19.86400       37.74600       61.80600
C         19.57300       38.06600       63.23200
N         22.71100       39.45700       64.26400
C         23.63700       40.51500       64.61700
C         24.78400       40.13600       65.53600
O         25.72800       40.91200       65.69100
N         24.71300       38.95900       66.15600
C         25.75000       38.53200       67.10300
C         27.06600       38.17300       66.40700
O         28.13900       38.40600       66.96200
C         25.29700       37.33900       67.96900
O         24.86900       36.27400       67.10900
C         24.16600       37.73600       68.92700
N         26.98200       37.61800       65.19900
C         28.16900       37.20700       64.42200
C         29.27400       38.27000       64.34400
O         30.44300       37.98900       64.64000
C         27.77300       36.76800       63.00200
C         27.29900       35.32900       62.89300
C         25.86000       35.11700       63.34700
O         25.25500       35.97400       64.00100
N         25.30600       33.95900       63.00800
N         28.89400       39.48400       63.94300
C         29.83400       40.59600       63.81900
C         30.45600       40.97400       65.15700
O         31.61600       41.40200       65.20600
N         29.69200       40.81600       66.24300
C         30.19000       41.11000       67.59100
C         31.25600       40.11000       68.02400
O         32.26500       40.50000       68.60500
C         29.04700       41.18200       68.61300
C         28.07900       42.37300       68.52200
C         26.82200       42.14800       69.37100
C         28.76700       43.68400       68.91100
N         31.03600       38.83000       67.72800
C         32.05500       37.79800       67.93700
C         33.35500       38.11900       67.20700
O         34.43800       38.05000       67.79500
C         31.56700       36.42800       67.47300
C         30.34600       35.89400       68.19100
C         29.39600       35.14900       67.49900
C         30.14300       36.11600       69.55600
C         28.28300       34.64100       68.13000
C         29.01600       35.61600       70.19800
C         28.09300       34.88000       69.47100
O         26.97500       34.37400       70.07800
N         33.23900       38.46600       65.92700
C         34.39200       38.82100       65.10100
C         35.14800       40.00100       65.67700
O         36.38300       39.97800       65.75400
N         34.40000       41.02600       66.09300
C         34.97400       42.20400       66.73700
C         35.74800       41.80600       67.99200
O         36.88800       42.22900       68.16600
C         33.87900       43.23100       67.05200
C         34.37400       44.46000       67.78600
C         34.90600       45.54300       67.08100
C         34.29000       44.54500       69.18600
C         35.35300       46.68000       67.75900
C         34.73400       45.67100       69.86000
C         35.26700       46.73800       69.15200
N         35.12900       40.98300       68.84500
C         35.76600       40.50000       70.08600
C         37.07700       39.76200       69.77300
O         38.09800       40.04600       70.38700
C         34.79400       39.64800       70.98000
C         35.53400       38.93800       72.10900
C         33.70200       40.52600       71.56000
N         37.05300       38.85500       68.79900
C         38.27500       38.17100       68.36300
C         39.35000       39.16500       67.89100
O         40.52000       39.04600       68.27700
C         37.98900       37.08200       67.28200
C         37.23400       35.89500       67.89700
C         39.27900       36.60200       66.60000
C         37.91600       35.24600       69.11400
N         38.94800       40.14300       67.07300
C         39.86300       41.18100       66.58600
C         40.51800       41.93500       67.75300
O         41.73200       42.16500       67.74900
C         39.13700       42.14700       65.66600
N         39.71200       42.29600       68.75400
C         40.19600       43.02000       69.92400
C         41.13700       42.16200       70.77400
O         42.10300       42.66600       71.34500
C         39.02100       43.53200       70.75900
C         39.42300       44.49300       71.82500
C         39.70200       45.82300       71.50900
C         39.54900       44.07300       73.14600
C         40.09900       46.72600       72.49800
C         39.94300       44.96600       74.14700
C         40.21700       46.29600       73.82300
N         40.85400       40.86400       70.84100
C         41.69700       39.91700       71.56500
C         43.06400       39.76300       70.90400
O         44.08200       39.69000       71.58900
C         41.00200       38.56000       71.69600
C         41.54600       37.57800       72.73700
C         39.84500       38.48300       72.69600
C         41.16300       38.00300       74.16100
C         38.90000       37.37400       72.29600
C         41.05800       36.16900       72.43800
C         40.33400       38.29600       74.13100
N         43.08600       39.71700       69.57500
C         44.34500       39.79000       68.83600
C         45.04900       41.10700       69.16600
O         46.23500       41.10600       69.47800
C         44.14300       39.65000       67.30200
C         43.55400       38.27500       66.96300
C         45.46500       39.85800       66.55900
C         42.98200       38.15900       65.55400
N         44.30000       42.21200       69.12500
C         44.85300       43.54800       69.33500
C         45.64000       43.66700       70.64000
O         46.76500       44.17500       70.65100
C         43.75500       44.61500       69.27500
C         44.26500       46.02100       69.44700
C         45.00900       46.63200       68.44000
C         44.01200       46.73400       70.62300
C         45.49300       47.93500       68.59900
C         44.48900       48.03300       70.78700
C         45.22900       48.63600       69.77500
N         45.05700       43.18600       71.73400
C         45.71600       43.26800       73.04000
C         46.85700       42.25900       73.20400
O         47.61300       42.34000       74.16300
C         44.71100       43.16500       74.21500
C         44.06700       41.77600       74.26100
C         43.66300       44.27200       74.11700
C         43.18800       41.53900       75.47100
N         46.97900       41.31800       72.27000
C         48.07800       40.34800       72.28700
C         49.17700       40.65800       71.27400
O         50.00800       39.79800       70.97600
C         47.55100       38.92500       72.08500
C         46.95700       38.34000       73.34600
O         47.68000       37.94100       74.25300
N         45.63500       38.28200       73.41100
N         49.18000       41.89000       70.76200
C         50.14300       42.32700       69.74800
C         51.55600       42.53500       70.29900
O         51.94600       41.91700       71.29400
C         49.64200       43.59600       69.04500
C         49.10600       43.51600       67.60900
C         48.39900       42.19800       67.30300
C         48.19500       44.70600       67.32400
N         52.31200       43.41800       69.64800
C         53.72700       43.64300       69.95500
C         54.51400       43.72100       68.65400
O         54.21900       42.98900       67.69300
N         55.51100       44.60900       68.61600
C         56.31000       44.85000       67.39600
C         57.50700       43.88800       67.23900
O         58.21100       43.90700       66.22000
C         56.76800       46.31900       67.32000
O         57.57300       46.67700       68.43200
N         57.72300       43.04900       68.25100
C         58.76800       42.02800       68.21300
C         58.28000       40.74000       67.52800
O         59.01100       39.75100       67.47400
C         59.25700       41.72800       69.64300
C         60.75900       41.45900       69.71100
C         58.12300       41.30700       70.58700
O         61.26100       40.57700       68.98000
O         56.95100       41.68300       70.35900
O         61.44200       42.13000       70.51000
O         58.41200       40.60000       71.57300
N         57.05700       40.77800       66.98800
C         56.34000       39.60300       66.47800
C         56.95500       38.97900       65.22300
O         57.22700       39.67700       64.24300
C         54.88900       39.99400       66.19800
C         53.93900       38.82800       66.02000
S         52.27200       39.36000       65.56200
C         51.76100       40.25400       67.01900
N         57.15200       37.66100       65.25400
C         57.68200       36.92100       64.10000
C         56.60200       36.63000       63.05700
O         55.40500       36.69600       63.35300
C         58.32900       35.60900       64.55100
O         57.34900       34.66400       64.95000
N         57.03100       36.29700       61.84200
C         56.10600       35.95000       60.76300
C         55.28000       34.70300       61.10800
O         54.07900       34.65400       60.81100
C         56.83100       35.83800       59.39100
C         55.96500       35.12800       58.34200
C         57.23200       37.22700       58.89900
N         55.91000       33.72000       61.75800
C         55.20000       32.51500       62.21900
C         54.03200       32.88000       63.14600
O         52.90500       32.41700       62.94500
C         56.14900       31.47900       62.88500
C         55.36200       30.42100       63.64500
C         57.01800       30.80900       61.83900
N         54.30200       33.72700       64.13900
C         53.25900       34.17500       65.05600
C         52.17300       34.99200       64.35000
O         50.98100       34.78500       64.59600
C         53.84900       34.97000       66.22000
C         52.84400       35.19600       67.35000
C         53.42400       35.91400       68.54600
O         54.57400       36.36900       68.52600
N         52.62500       36.02000       69.60700
N         52.59000       35.91300       63.48200
C         51.66400       36.69800       62.66800
C         50.72700       35.81700       61.86800
O         49.51600       36.03000       61.87300
N         51.29400       34.82000       61.19500
C         50.50300       33.84600       60.45700
C         49.57900       33.02600       61.36200
O         48.45000       32.71000       60.96900
C         51.39800       32.93100       59.61500
C         52.14000       33.56000       58.43200
C         53.07200       32.54500       57.81900
C         51.19200       34.11500       57.38100
N         50.04200       32.69500       62.56800
C         49.19300       32.00300       63.54500
C         47.93800       32.79300       63.89600
O         46.84300       32.22300       63.96200
C         49.96200       31.65400       64.81400
C         50.88000       30.45800       64.63200
O         50.69900       29.64600       63.72600
N         51.86800       30.34100       65.50600
N         48.10400       34.10100       64.10600
C         46.96900       35.00800       64.29100
C         46.04500       35.02100       63.06600
O         44.81700       35.00200       63.20100
C         47.45000       36.42700       64.59700
C         47.91400       36.62400       66.01600
C         49.22600       37.01400       66.28800
C         47.03800       36.43500       67.08500
C         49.65800       37.20500       67.59500
C         47.46500       36.62000       68.39700
C         48.77800       37.00600       68.64800
N         46.63800       35.04900       61.87600
C         45.86300       35.07100       60.64100
C         45.01200       33.81000       60.51100
O         43.82900       33.88400       60.17100
C         46.77000       35.26100       59.42100
C         46.05700       35.47100       58.08500
C         44.95900       36.53500       58.17400
C         47.06400       35.82000       57.00700
N         45.61500       32.66300       60.80100
C         44.87700       31.41000       60.82800
C         43.78200       31.43900       61.87900
O         42.64100       31.06300       61.59500
N         44.13800       31.90800       63.08300
C         43.21200       32.04100       64.22100
C         41.95700       32.85600       63.89900
O         40.88700       32.58600       64.44400
C         43.92600       32.64200       65.41800
N         42.08800       33.84600       63.01900
C         40.97300       34.70800       62.67900
C         39.97700       34.04100       61.73300
O         38.80800       34.43400       61.68100
C         41.47800       36.00900       62.06600
O         41.90100       35.82000       60.72800
N         40.43100       33.03900       60.98900
C         39.60000       32.43900       59.95100
C         38.28700       31.80700       60.42000
O         37.24500       32.08700       59.82700
C         40.41300       31.47000       59.10200
C         41.61000       32.07700       58.36100
C         42.27100       30.99900       57.53600
C         41.24200       33.26200       57.46200
N         38.32400       30.95200       61.47000
C         37.07800       30.33100       61.92900
C         35.92900       31.31800       62.18100
O         34.85300       31.15200       61.60700
C         37.50300       29.60200       63.21000
C         38.91800       29.27100       62.96200
C         39.46900       30.47800       62.27100
N         36.14600       32.34500       62.99600
C         35.06600       33.30300       63.23600
C         34.71800       34.10600       61.97400
O         33.55000       34.39700       61.73100
C         35.30000       34.22500       64.48200
C         34.00400       34.94300       64.88300
C         36.40000       35.25100       64.22000
C         32.79600       34.03600       65.03200
N         35.72400       34.43900       61.17100
C         35.49200       35.19000       59.93800
C         34.46100       34.48500       59.06000
O         33.45500       35.08700       58.65300
C         36.79400       35.40500       59.17300
N         34.68500       33.19800       58.80600
C         33.86800       32.50700       57.81700
C         32.63300       31.79100       58.33600
O         31.60300       31.80000       57.65700
C         34.73200       31.70200       56.85000
C         35.61000       32.57600       56.02300
C         36.94300       32.78800       56.37600
C         35.08300       33.26800       54.93500
C         37.75800       33.64600       55.62500
C         35.88500       34.13300       54.17500
C         37.22800       34.32300       54.52700
N         32.70300       31.21000       59.53400
C         31.47300       30.72700       60.16500
C         30.57700       31.93700       60.44300
O         29.35600       31.85400       60.29900
C         31.69900       29.92900       61.45800
O         32.37800       30.75200       62.40900
C         32.50200       28.65100       61.19100
N         31.19300       33.06700       60.79600
C         30.46200       34.32000       61.00000
C         29.71500       34.76400       59.75400
O         28.49500       34.99400       59.80200
N         30.44800       34.86900       58.63900
C         29.86100       35.21800       57.34100
C         28.67500       34.31600       56.98100
O         27.56600       34.80600       56.74000
C         30.91600       35.14900       56.23200
C         30.42100       35.37100       54.80200
C         29.89000       36.78900       54.64400
C         31.51600       35.07900       53.79600
N         28.90200       33.00500       56.95800
C         27.87500       32.09800       56.45500
C         26.72300       31.87300       57.42300
O         25.56100       31.85800       56.99900
C         28.48400       30.78800       55.94800
C         29.29900       30.96200       54.70200
C         30.65900       31.22000       54.77800
C         28.69900       30.90800       53.44700
C         31.42300       31.39600       53.61700
C         29.45100       31.09100       52.28000
C         30.81600       31.33200       52.37000
N         27.02500       31.72100       58.71200
C         25.95200       31.55100       59.69200
C         25.10800       32.82400       59.78500
O         23.88500       32.74300       59.89100
C         26.47100       31.10000       61.06400
O         27.21900       32.12200       61.70300
N         25.76300       33.98500       59.71400
C         25.07400       35.26900       59.70200
C         24.01000       35.32100       58.62600
O         22.85000       35.62900       58.90700
N         24.40500       35.00700       57.39000
C         23.47900       34.95400       56.25700
C         22.37300       33.92000       56.49000
O         21.19000       34.24200       56.35900
C         24.22600       34.69100       54.93100
C         25.01700       35.93900       54.53800
C         23.26600       34.28000       53.80600
C         26.11700       35.67600       53.52500
N         22.76000       32.69400       56.85500
C         21.80300       31.60700       57.08400
C         20.81000       31.98000       58.17900
O         19.60100       31.78700       58.01900
C         22.53100       30.31400       57.44400
N         21.32700       32.52900       59.28000
C         20.50700       32.88700       60.42200
C         19.50800       33.96800       60.04600
O         18.35100       33.92900       60.47100
C         21.37600       33.35000       61.58300
C         20.63800       33.41800       62.89900
C         21.56300       33.61800       64.06800
O         22.49000       34.43200       64.01900
N         21.31900       32.87800       65.14000
N         19.96300       34.92500       59.24100
C         19.10600       35.99200       58.72600
C         17.90700       35.46800       57.95200
O         16.79600       35.97700       58.11700
N         18.13300       34.44700       57.12100
C         17.05800       33.77300       56.40500
C         16.02400       33.13500       57.34300
O         14.81300       33.28400       57.11600
C         17.61300       32.72100       55.44900
C         18.22000       33.29000       54.18700
C         18.97300       32.23000       53.42700
C         19.58400       32.83200       52.18600
N         20.77500       32.07200       51.70500
N         16.49500       32.43800       58.38000
C         15.59200       31.82800       59.35300
C         14.84200       32.90800       60.14100
O         13.62700       32.81100       60.32800
C         16.31800       30.85800       60.31900
C         15.31800       30.05800       61.14800
C         17.20700       29.91500       59.55100
N         15.55900       33.93900       60.58500
C         14.93500       35.02000       61.34700
C         13.84500       35.69800       60.50900
O         12.72700       35.92500       60.98800
C         15.98700       36.03400       61.83500
N         14.16900       35.99100       59.24900
C         13.20300       36.56800       58.31200
C         11.96400       35.67800       58.18100
O         10.83900       36.17000       58.21100
C         13.84600       36.80700       56.95700
N         12.17000       34.37000       58.04700
C         11.05600       33.42300       58.05400
C         10.22800       33.52000       59.35200
O          8.99500       33.44300       59.31600
C         11.55700       31.99500       57.81200
N         10.91400       33.71700       60.48000
C         10.27200       33.87200       61.78000
C          9.31800       35.05200       61.85600
O          8.32000       35.01200       62.59300
N          9.61800       36.10400       61.09300
C          8.73800       37.27900       60.99200
C          7.32500       36.86700       60.54900
O          6.34200       37.45400       60.99700
C          9.34900       38.38000       60.06000
C         10.63100       38.97200       60.67200
C          8.33000       39.47400       59.70600
C         10.42300       39.92200       61.83900
N          7.22900       35.84300       59.69700
C          5.92800       35.35900       59.22800
C          5.15400       34.62600       60.31800
O          3.92300       34.66900       60.31800
C          6.03900       34.51500       57.94600
C          7.06800       35.02900       56.90800
C          5.87700       35.30100       56.64800
C          7.01200       36.54200       56.63800
C          4.52500       35.97700       56.52700
O          5.94200       37.12100       56.46900
O          3.48600       35.32000       56.44400
N          8.18300       37.17600       56.57900
N          4.53300       37.30100       56.51300
N          5.86700       33.97200       61.24400
C          5.23300       33.37100       62.43100
C          4.64000       34.50700       63.24800
O          3.48600       34.46200       63.65200
C          6.21800       32.55800       63.31800
C          6.76400       31.34900       62.55500
C          5.53100       32.11100       64.61500
C          7.92300       30.65500       63.23700
N          5.44400       35.53500       63.46300
C          5.00800       36.73600       64.13600
C          3.76900       37.35500       63.47100
O          2.85400       37.80700       64.15000
C          6.17000       37.71800       64.14100
C          6.14000       38.92400       65.05500
C          5.90700       38.46700       66.47700
C          7.46100       39.63800       64.93200
N          3.74200       37.35200       62.13900
C          2.62700       37.91800       61.37200
C          1.32300       37.15000       61.57400
O          0.26700       37.75300       61.71600
C          2.97700       37.97100       59.89200
N          1.41200       35.82200       61.58600
C          0.24000       34.95400       61.59500
C         -0.12500       34.42400       62.98200
O         -1.30300       34.27200       63.29700
C          0.46000       33.77000       60.65100
C          0.51300       34.13000       59.17700
C         -0.88400       34.20800       58.57800
C         -0.84100       34.20000       57.06300
N         -0.23800       35.45600       56.55500
N          0.88600       34.11500       63.79300
C          0.69000       33.52200       65.11700
C          1.58400       34.22700       66.13400
O          2.51400       33.61400       66.66600
C          1.02900       32.03100       65.09000
C          0.28800       31.22300       64.05100
C         -0.99900       30.67300       64.59200
C         -1.67200       29.80000       63.56400
N         -2.88300       29.16500       64.14200
N          1.30500       35.51900       66.42000
C          2.20300       36.30100       67.27600
C          2.46000       35.66100       68.64100
O          3.52000       35.87300       69.22100
C          1.47300       37.63800       67.44100
C          0.08700       37.39900       66.99600
C          0.14700       36.31900       65.98100
N          1.50800       34.87400       69.13600
C          1.65600       34.20100       70.42700
C          2.69500       33.06600       70.39000
O          3.06300       32.53000       71.43300
C          0.29100       33.71900       70.96300
C         -0.35600       32.52900       70.21600
C         -0.99600       32.87700       68.84500
O         -1.61600       31.97000       68.23900
O         -0.89000       34.03300       68.36300
N          3.17000       32.72100       69.19100
C          4.16300       31.65900       69.02900
C          5.51300       32.18500       68.55700
O          6.34100       31.42400       68.03500
C          3.65400       30.59000       68.06100
C          2.51200       29.78600       68.59700
N          2.68300       28.74200       69.48200
C          1.18000       29.87000       68.36800
C          1.50800       28.22000       69.77900
N          0.57900       28.88600       69.11600
N          5.73600       33.48200       68.75600
C          6.94700       34.14800       68.27900
C          8.25000       33.54800       68.82500
O          9.27000       33.56100       68.12400
C          6.88100       35.63600       68.56200
N          8.21500       33.02600       70.05300
C          9.38100       32.36900       70.66300
C          9.90400       31.20800       69.80700
O         11.11800       30.98100       69.71600
C          9.06800       31.85700       72.09400
O          8.55800       32.93200       72.88800
C         10.31500       31.30100       72.78200
N          8.98200       30.47900       69.18500
C          9.33800       29.38500       68.28500
C         10.23100       29.87500       67.13200
O         11.23600       29.23700       66.79700
C          8.07700       28.70400       67.75700
C          7.30800       27.96000       68.83000
C          6.05300       27.32700       68.26600
C          5.35700       26.47700       69.29300
N          5.03200       27.25600       70.50500
N          9.86900       31.01700       66.54900
C         10.67600       31.64600       65.51600
C         12.07800       31.98700       65.99400
O         13.06900       31.77500       65.28300
N         12.16100       32.51500       67.21000
C         13.44800       32.81900       67.82100
C         14.30600       31.54700       67.96100
O         15.48300       31.54100       67.58400
C         13.27800       33.54500       69.18600
C         12.67000       34.94100       68.97400
C         14.61800       33.64400       69.91800
C         12.13000       35.58500       70.22800
N         13.70400       30.47600       68.47800
C         14.41000       29.21400       68.67200
C         14.92700       28.64500       67.35300
O         16.09600       28.25900       67.27600
C         13.56400       28.19200       69.46900
C         13.35900       28.69400       70.90700
C         14.23400       26.81600       69.50100
C         12.31800       27.93100       71.70100
N         14.08600       28.61600       66.31500
C         14.52500       28.15500       64.98800
C         15.77200       28.92300       64.55000
O         16.75900       28.32700       64.11100
C         13.42900       28.33200       63.93100
C         12.27200       27.38200       64.06500
C         10.96500       27.84500       63.92000
C         12.47600       26.02700       64.31300
C          9.88000       26.97800       64.02900
C         11.40000       25.15400       64.43300
C         10.09900       25.63300       64.28700
N         15.72300       30.24900       64.67900
C         16.85000       31.10800       64.32800
C         18.06400       30.85400       65.23100
O         19.20400       30.80300       64.75600
C         16.43500       32.56900       64.37900
N         17.81100       30.68500       66.52900
C         18.87000       30.43400       67.50400
C         19.69800       29.19000       67.16500
O         20.89300       29.14700       67.45000
C         18.28600       30.32300       68.89000
N         19.07200       28.19000       66.54600
C         19.76500       26.94000       66.22100
C         20.92500       27.15600       65.26500
O         21.88700       26.38800       65.27700
C         18.80900       25.89200       65.65700
C         17.74500       25.41100       66.64000
S         18.38100       24.79400       68.23000
C         18.24100       26.21400       69.33700
N         20.84500       28.20200       64.44900
C         21.93400       28.52500       63.53200
C         23.08200       29.17200       64.29900
O         24.23600       29.06100       63.89800
C         21.46700       29.42100       62.34800
C         22.58600       29.59400       61.32500
C         20.23300       28.82700       61.66700
N         22.76300       29.81800       65.41800
C         23.76400       30.47400       66.27300
C         24.93200       29.56300       66.66600
O         26.08900       30.00200       66.68400
C         23.10400       31.05500       67.52600
C         23.99400       31.97200       68.33200
C         24.32600       33.28300       67.62100
O         23.68400       33.62300       66.59800
O         25.23600       33.99400       68.10400
N         24.62500       28.30100       66.96400
C         25.63900       27.30200       67.31000
C         26.95200       27.46500       66.53000
O         28.04000       27.48500       67.10500
C         25.10100       25.85600       67.09600
O         23.77600       25.75400       67.63100
C         26.01400       24.81300       67.76000
N         26.83800       27.60500       65.21700
C         28.00200       27.48200       64.33600
C         28.89500       28.71900       64.36600
O         30.11800       28.62100       64.18400
C         27.55300       26.99000       62.95300
C         26.69400       25.79500       63.21300
C         25.30400       25.89100       63.18900
C         27.27300       24.59800       63.64800
C         24.51300       24.79500       63.51800
C         26.49800       23.50300       63.98600
C         25.12500       23.60700       63.92000
O         24.37400       22.52000       64.25400
N         28.28100       29.86000       64.67500
C         29.02800       31.06200       64.98700
C         29.74800       30.90900       66.33800
O         30.91500       31.28700       66.46300
C         28.10400       32.27500       64.98800
N         29.06200       30.34800       67.33500
C         29.66900       30.13100       68.65500
C         30.86900       29.17500       68.55700
O         31.94700       29.48400       69.07000
C         28.62400       29.67200       69.72300
C         27.64600       30.81700       70.01400
C         29.30700       29.23700       71.01200
C         26.36000       30.40300       70.71300
N         30.68900       28.04100       67.87600
C         31.78300       27.09300       67.67300
C         32.96300       27.74900       66.95900
O         34.10800       27.58000       67.38800
C         31.31300       25.84600       66.91900
C         30.27400       24.94900       67.60200
C         29.87400       23.81900       66.65500
C         30.74700       24.41200       68.98400
N         32.67500       28.50200       65.88700
C         33.67600       29.31200       65.18500
C         34.39600       30.29200       66.10600
O         35.62400       30.43300       66.04200
N         33.62900       30.95600       66.97600
C         34.16800       31.89800       67.96300
C         35.10400       31.20400       68.95500
O         36.19700       31.70900       69.23800
C         33.02800       32.62900       68.69600
C         33.49200       33.55600       69.79600
C         34.05200       34.79400       69.49800
C         33.35600       33.19200       71.13300
C         34.47300       35.65400       70.51100
C         33.77800       34.04200       72.15600
C         34.33600       35.27600       71.84100
N         34.67500       30.05000       69.47200
C         35.44100       29.30200       70.47800
C         36.80000       28.83900       69.91200
O         37.83900       28.98700       70.57200
C         34.60500       28.12200       71.05700
C         35.47100       27.14500       71.84200
C         33.48100       28.65400       71.92300
N         36.79100       28.31100       68.68600
C         38.02500       27.88500       68.02200
C         38.96000       29.07200       67.78000
O         40.15400       28.98600       68.09200
C         37.75300       27.09300       66.70500
C         37.10400       25.73400       67.01000
C         39.03800       26.90700       65.87300
C         37.88700       24.83600       67.98900
N         38.41900       30.16800       67.24300
C         39.19400       31.40300       67.05900
C         39.79000       31.88400       68.38200
O         40.96900       32.25400       68.43400
C         38.34400       32.51600       66.44000
O         38.25600       32.36100       65.03500
N         38.97500       31.85700       69.44200
C         39.39600       32.28100       70.76900
C         40.60600       31.48500       71.25300
O         41.62200       32.06800       71.64900
C         38.23400       32.16600       71.76300
C         38.50700       32.81700       73.09600
C         38.17900       34.15400       73.31200
C         39.09200       32.09700       74.13700
C         38.43700       34.77000       74.54600
C         39.35300       32.70600       75.37800
C         39.02500       34.04200       75.57700
N         40.49400       30.15900       71.21500
C         41.58700       29.27700       71.62500
C         42.85200       29.51900       70.80600
O         43.95000       29.58800       71.36500
C         41.17600       27.80400       71.51500
C         40.12500       27.26300       72.48400
C         39.76300       25.83500       72.11100
C         40.60500       27.34500       73.92900
N         42.68700       29.65800       69.48800
C         43.81400       29.85100       68.58100
C         44.53200       31.18300       68.78200
O         45.75700       31.24100       68.66200
C         43.36900       29.68600       67.13100
C         43.19300       28.24900       66.65000
C         42.68000       28.23100       65.21000
C         44.49300       27.46800       66.77500
N         43.77000       32.23800       69.08500
C         44.34200       33.56100       69.37300
C         45.20100       33.50900       70.63400
O         46.32800       34.01400       70.64000
C         43.25800       34.66500       69.49500
C         43.85500       35.96400       70.04300
C         42.60600       34.91200       68.14800
N         44.67400       32.87600       71.68400
C         45.41100       32.70900       72.93700
C         46.66400       31.85300       72.76300
O         47.62000       31.96500       73.52900
C         44.51400       32.10800       74.02600
C         43.34900       32.92500       74.59300
C         42.80400       32.21700       75.81200
C         43.74700       34.35900       74.93900
N         46.65900       31.00500       71.74600
C         47.76200       30.08300       71.52200
C         48.66600       30.47000       70.34100
O         49.63100       29.77300       70.03600
C         47.21400       28.65900       71.37700
C         48.29000       27.60300       71.46000
C         46.89300       28.01600       72.72400
O         48.67300       27.01200       70.44700
O         47.55000       27.06400       73.14000
N         48.79000       27.35900       72.67000
N         45.88600       28.54400       73.41300
N         48.36200       31.59600       69.69900
C         49.13800       32.06700       68.55100
C         50.58700       32.36000       68.92700
O         51.49400       32.11400       68.12900
C         48.49300       33.29300       67.93900
O         50.88600       32.83900       70.02700
N         59.54600       32.21900       52.11200
C         58.40600       31.88700       53.01900
C         58.36800       30.40300       53.33300
O         58.45600       30.00600       54.49500
C         57.06500       32.31700       52.40600
C         55.82600       31.74400       53.10500
S         55.52900       32.42100       54.75200
C         54.19100       33.56300       54.42000
N         58.21600       29.58900       52.29200
C         58.13800       28.14400       52.45100
C         59.44200       27.62100       53.03500
O         59.43600       26.74900       53.90200
C         57.82600       27.46900       51.11400
C         57.06200       26.15800       51.22900
S         55.61200       26.21600       52.31600
C         56.24600       25.31900       53.74000
N         60.55200       28.18600       52.56800
C         61.86700       27.87200       53.09300
C         61.99000       28.30500       54.55900
O         62.62100       27.61400       55.36400
C         62.93900       28.54900       52.24200
C         64.30300       27.92300       52.42100
O         64.98300       28.21900       53.43100
O         64.69900       27.13400       51.54000
N         61.37900       29.44300       54.89300
C         61.39300       29.97500       56.25900
C         60.62000       29.08000       57.22700
O         61.12200       28.75100       58.30100
C         60.85000       31.41200       56.27800
C         60.39600       31.92900       57.63700
C         61.32600       32.35700       58.59200
C         59.03400       32.01500       57.95600
C         60.91300       32.84300       59.83600
C         58.61300       32.49600       59.19400
C         59.55800       32.90700       60.13000
O         59.15100       33.38700       61.35600
N         59.40700       28.68700       56.83800
C         58.56800       27.80200       57.65500
C         59.24400       26.45300       57.88800
O         59.23000       25.92500       59.00400
C         57.18300       27.60400       57.01600
C         56.25700       28.82100       56.92800
C         54.99200       28.47000       56.16600
C         55.92300       29.37200       58.31500
N         59.83900       25.91100       56.82800
C         60.59100       24.66300       56.90400
C         61.71400       24.77700       57.94400
O         61.73500       24.02600       58.92400
C         61.11500       24.23500       55.49400
C         59.95500       23.68800       54.63900
C         62.25100       23.21300       55.60600
C         60.13200       23.84200       53.13600
N         62.60200       25.75300       57.75400
C         63.82300       25.88200       58.56600
C         63.60600       26.44000       59.98300
O         64.51400       26.38300       60.80900
C         64.92800       26.71300       57.83400
O         64.37600       27.95900       57.38800
C         65.50300       25.94800       56.63300
N         62.41900       26.97400       60.26300
C         62.11700       27.53400       61.59100
C         61.04900       26.73200       62.33400
O         60.47600       27.21300       63.31900
C         61.66400       28.99900       61.48800
C         62.65200       29.93100       60.81700
C         63.97300       30.00100       61.53400
O         64.03300       30.31400       62.72300
N         65.04900       29.71400       60.81200
N         60.79600       25.51100       61.85900
C         59.69700       24.66700       62.35800
C         58.35200       25.40400       62.49700
O         57.70100       25.37600       63.55300
C         60.08700       23.93000       63.65400
C         60.98700       22.73300       63.39100
O         62.19000       22.88400       63.17900
N         60.40600       21.53500       63.40000
N         57.94500       26.06300       61.41700
C         56.67800       26.77300       61.39000
C         55.54000       25.89900       60.90900
O         54.58400       26.40800       60.33600
N         55.63700       24.58800       61.13900
C         54.56800       23.64600       60.78100
C         53.25700       23.93400       61.50000
O         52.17200       23.61800       61.00400
N         53.38000       24.53800       62.67900
C         52.26400       25.01400       63.48500
C         51.22100       25.75400       62.62900
O         50.01400       25.54800       62.80300
C         52.82700       25.88100       64.62900
C         51.82100       26.47800       65.59700
C         51.79100       26.64800       65.46700
S         52.58600       26.96800       67.15800
S         50.61800       25.64400       66.39800
C         54.04300       27.88500       66.63700
C         51.59400       25.20800       67.84000
N         51.68900       26.58100       61.69100
C         50.79500       27.36600       60.82300
C         49.81800       26.46200       60.05400
O         48.62900       26.79000       59.92000
C         51.55800       28.34800       59.86200
C         52.55000       29.20700       60.63300
C         50.60100       29.11400       58.98300
C         52.24200       27.60700       58.72300
C         52.41800       29.31400       60.65700
N         50.30600       25.31700       59.58000
C         49.45400       24.38100       58.85400
C         48.47700       23.64500       59.76400
O         47.36700       23.29500       59.34500
C         50.29400       23.41000       58.03900
C         51.13300       24.08400       57.00500
C         52.51200       24.16800       57.16400
C         50.54000       24.66800       55.88300
C         53.29600       24.80500       56.21100
C         51.31100       25.31400       54.92600
C         52.69500       25.38200       55.08600
N         48.89200       23.42200       61.01100
C         48.02300       22.81600       62.01600
C         46.90100       23.77900       62.42600
O         45.75500       23.35900       62.66400
C         48.82500       22.38600       63.21800
N         47.23800       25.06600       62.50400
C         46.25600       26.10300       62.78700
C         45.26400       26.14900       61.63400
O         44.05400       26.12700       61.84400
C         46.92300       27.48200       63.00900
C         45.88000       28.58500       63.13600
C         47.81500       27.45200       64.25100
N         45.78300       26.17600       60.41300
C         44.93800       26.12800       59.21900
C         44.06900       24.87600       59.17900
O         42.92400       24.92400       58.72600
C         45.79300       26.21100       57.95700
C         45.08700       26.43800       56.62100
C         46.35600       27.58800       57.61300
C         44.42800       27.81300       56.57500
C         47.26300       27.47700       56.40500
C         46.07100       26.27200       55.46800
C         45.23400       28.58000       57.35900
N         44.62800       23.76600       59.66400
C         43.90900       22.50700       59.77700
C         42.66500       22.65900       60.65700
O         41.57400       22.21700       60.28600
C         44.82900       21.42600       60.32800
N         42.83500       23.29300       61.81500
C         41.72800       23.52500       62.73000
C         40.68800       24.44500       62.11500
O         39.48700       24.19200       62.21900
C         42.23800       24.10700       64.03800
C         43.01300       23.11100       64.86500
S         43.70900       23.86300       66.33400
C         42.22100       24.48500       67.12200
N         41.15000       25.50200       61.45600
C         40.24600       26.41100       60.76900
C         39.41000       25.65100       59.73200
O         38.18400       25.78100       59.71100
C         41.01900       27.56400       60.13000
N         40.07200       24.83300       58.91100
C         39.41000       24.09500       57.83300
C         38.32600       23.15500       58.34700
O         37.18500       23.19100       57.87000
C         40.43100       23.34100       56.96200
O         41.38600       22.67800       57.79500
O         41.37300       24.28500       56.45200
C         41.15400       24.29400       56.04300
C         39.77200       22.62400       55.79600
N         38.68700       22.32300       59.32000
C         37.73100       21.42300       59.97300
C         36.49200       22.18100       60.46900
O         35.35900       21.77900       60.19500
C         38.40200       20.65600       61.12100
N         36.72300       23.28700       61.17500
C         35.64800       24.08700       61.75000
C         34.80300       24.78200       60.68300
O         33.57500       24.66400       60.69100
C         36.20400       25.15100       62.71200
O         37.09800       24.52800       63.64000
C         35.07700       25.82700       63.48400
N         35.46000       25.49300       59.76800
C         34.76100       26.36200       58.82200
C         33.80000       25.60600       57.91000
O         32.60600       25.91400       57.87700
C         35.74900       27.24100       57.99200
C         36.36600       28.32900       58.87900
C         35.05400       27.86900       56.76100
C         37.69900       28.83600       58.38000
N         34.31100       24.61300       57.19600
C         33.51500       23.95700       56.17700
C         32.38700       23.08600       56.72900
O         31.27100       23.09700       56.19600
C         34.41300       23.24300       55.17200
C         35.26900       24.18900       54.38300
C         36.60900       24.38100       54.72500
C         34.72200       24.93800       53.33100
C         37.40500       25.28800       54.00800
C         35.50300       25.84100       52.61300
C         36.84800       26.02100       52.94700
N         32.65500       22.36600       57.81200
C         31.60100       21.61200       58.47900
C         30.57000       22.57600       59.06000
O         29.37100       22.32900       58.96100
C         32.17400       20.70300       59.57300
O         32.77500       21.46100       60.61500
N         31.04700       23.67100       59.65200
C         30.18100       24.73600       60.16000
C         29.27800       25.35400       59.09700
O         28.08800       25.59700       59.35400
N         29.83600       25.60100       57.90700
C         29.05900       26.14000       56.79000
C         27.97400       25.15200       56.37100
O         26.82500       25.54900       56.13900
C         29.94100       26.50500       55.57300
C         30.83000       27.70900       55.89200
C         29.07700       26.79700       54.34300
C         31.90300       27.96900       54.83000
N         28.34300       23.87400       56.27900
C         27.38500       22.81200       55.96400
C         26.19900       22.78700       56.92500
O         25.03700       22.72100       56.50500
N         26.48800       22.85700       58.21800
C         25.44000       22.87900       59.22200
C         24.65600       24.18100       59.16900
O         23.42600       24.16500       59.20200
C         26.01200       22.65300       60.61700
O         26.23000       21.27800       60.83800
N         25.35400       25.30400       59.07600
C         24.65700       26.58000       59.04900
C         23.62300       26.58600       57.91700
O         22.46700       26.97700       58.12000
C         25.63400       27.74000       58.91800
N         24.03500       26.11300       56.74100
C         23.15000       26.05300       55.58100
C         22.01900       25.04100       55.75800
O         20.84900       25.36100       55.53100
C         23.94500       25.76000       54.31300
C         24.60000       26.99600       53.74300
C         25.48200       26.66100       52.57700
C         25.83900       27.93100       51.84500
N         24.62200       28.51700       51.22300
N         22.37400       23.83000       56.18000
C         21.40400       22.76800       56.37800
C         20.38400       23.09700       57.45200
O         19.17600       22.99400       57.21600
N         20.87200       23.48400       58.63600
C         20.01400       23.88500       59.76400
C         19.17500       25.10100       59.36700
O         17.99000       25.18100       59.70200
C         20.85000       24.19100       61.03800
C         20.00200       24.81300       62.14200
C         21.52300       22.93600       61.53500
N         19.80300       26.02000       58.62900
C         19.14200       27.21200       58.12700
C         17.97100       26.87300       57.22800
O         16.84000       27.32600       57.45600
N         18.24000       26.05900       56.21200
C         17.20800       25.66800       55.27500
C         16.03300       24.96800       55.95100
O         14.88200       25.29200       55.67100
C         17.77700       24.79200       54.18400
C         16.70600       24.31600       53.23700
S         17.35300       23.34300       51.87900
C         17.95500       24.63700       50.78600
N         16.32800       24.01100       56.82900
C         15.29700       23.28300       57.57100
C         14.52600       24.23700       58.49400
O         13.29400       24.17100       58.58500
C         15.89900       22.09900       58.36300
O         16.70900       21.30700       57.48500
C         14.80700       21.20000       58.94300
N         15.26000       25.13400       59.14900
C         14.66700       26.20000       59.94400
C         13.62100       27.01400       59.19800
O         12.54400       27.28900       59.74000
N         13.93700       27.39800       57.96000
C         13.00300       28.14100       57.10800
C         11.71800       27.34900       56.87400
O         10.61200       27.87700       57.04300
C         13.65800       28.50300       55.77700
C         14.84300       29.44400       55.92000
C         15.53200       29.72300       54.59600
O         14.87400       30.27000       53.68100
O         16.73800       29.40500       54.47000
N         11.87100       26.07500       56.50900
C         10.73600       25.18400       56.28300
C          9.92400       25.00100       57.57200
O          8.68300       25.00600       57.54500
C         11.20400       23.85400       55.75700
N         10.63100       24.85500       58.69300
C          9.99700       24.68300       59.99300
C          9.22100       25.93800       60.36800
O          8.09700       25.85200       60.86700
C         11.03300       24.34900       61.04900
N          9.80900       27.10200       60.10500
C          9.14400       28.36000       60.41400
C          7.84700       28.46800       59.61200
O          6.80300       28.82600       60.17200
C         10.05600       29.53700       60.14500
N          7.91300       28.13000       58.31700
C          6.75000       28.18600       57.42400
C          5.62200       27.29500       57.95100
O          4.47200       27.72600       58.02900
C          7.14300       27.79700       56.00300
N          5.95800       26.07000       58.35000
C          4.97400       25.16400       58.94600
C          4.34900       25.75300       60.21700
O          3.14100       25.62000       60.45300
C          5.59200       23.78700       59.24000
C          4.70900       22.78000       59.98600
C          3.47500       22.39000       59.18500
C          5.48500       21.55700       60.37200
N          5.18100       26.40900       61.02300
C          4.75400       26.93100       62.32000
C          3.72000       28.04400       62.18000
O          2.89700       28.23100       63.08200
C          5.95600       27.40600       63.16300
O          6.86000       26.31200       63.35500
C          5.51500       27.90800       64.52000
N          3.74200       28.75700       61.04600
C          2.78600       29.85000       60.80900
C          1.33600       29.35200       60.74800
O          0.40600       30.12800       60.96600
C          3.08500       30.66600       59.53100
O          2.74000       29.89300       58.38300
C          4.55000       31.07900       59.44900
N          1.14200       28.06700       60.45500
C         -0.20300       27.51800       60.42600
C         -0.42600       26.36600       61.42400
O         -1.52900       26.21000       61.94500
C         -0.60000       27.12200       59.00600
O         -0.11500       25.83500       58.69700
N          0.60700       25.57000       61.70000
C          0.48100       24.46400       62.67400
C          1.58700       24.49500       63.74000
O          2.50600       23.66300       63.71300
C          0.46500       23.10200       61.97200
C         -0.62000       22.93600       60.93000
C         -0.32700       21.78900       59.99100
O         -0.41900       20.64300       60.37800
N          0.03500       22.09600       58.74700
N          1.50000       25.45500       64.68800
C          2.56200       25.63900       65.68800
C          2.71000       24.46900       66.66000
O          3.76400       24.31200       67.27500
C          2.13000       26.90500       66.44000
C          0.67200       26.99400       66.23100
C          0.40600       26.43000       64.87100
N          1.67300       23.64900       66.78400
C          1.70500       22.51500       67.70200
C          2.71400       21.42800       67.28800
O          3.03200       20.54000       68.07900
C          0.29700       21.92700       67.88400
C         -0.27200       21.16700       66.67100
C         -0.86700       22.06900       65.57500
O         -1.19900       21.51400       64.49800
O         -1.00800       23.30800       65.77700
N          3.21900       21.49700       66.06000
C          4.15300       20.50000       65.55700
C          5.60500       20.93200       65.75000
O          6.52500       20.31600       65.21200
C          3.84300       20.20500       64.09300
C          2.52300       19.51000       63.92500
C          2.10500       19.40600       62.48800
C          0.82900       18.60600       62.39400
N          0.52100       18.26100       60.99400
N          5.78500       21.97800       66.55400
C          7.07700       22.62100       66.80400
C          8.20700       21.68000       67.24000
O          9.29700       21.70800       66.66200
C          6.89700       23.73900       67.83200
C          8.17800       24.36400       68.28500
C          8.92800       25.15500       67.41600
C          8.63500       24.17400       69.58400
C         10.11700       25.74000       67.83500
C          9.82500       24.75200       70.01400
C         10.56600       25.53600       69.14300
N          7.95100       20.86800       68.26400
C          8.95900       19.94500       68.79700
C          9.52100       18.99700       67.74800
O         10.73900       18.79100       67.66100
N          8.62900       18.42900       66.94200
C          9.01700       17.49300       65.89300
C          9.80400       18.21700       64.80600
O         10.80200       17.69100       64.31600
C          7.79300       16.75600       65.31500
C          6.84900       16.10100       66.36000
C          7.18500       15.69200       66.24000
C          5.65300       16.98100       66.76000
C          7.95000       14.38000       66.23600
O          4.54000       16.78700       66.27300
O          9.09100       14.30400       66.69300
N          5.88200       17.93800       67.65300
N          7.31500       13.33500       65.73100
N          9.36500       19.43000       64.45900
C         10.04900       20.28500       63.47700
C         11.45300       20.62300       63.94700
O         12.39700       20.64800       63.14600
C          9.26000       21.56300       63.22400
N         11.58000       20.86400       65.25400
C         12.86000       21.17400       65.88900
C         13.85200       20.02300       65.75600
O         15.01500       20.24300       65.42400
C         12.65000       21.55200       67.36000
C         13.76700       22.33200       68.05900
C         14.28400       23.49200       67.19800
C         13.26400       22.84000       69.39600
N         13.38800       18.79700       65.99900
C         14.23600       17.60400       65.83900
C         14.78800       17.51300       64.41600
O         15.99300       17.32400       64.21900
C         13.50200       16.30000       66.23800
C         13.22900       16.29200       67.74900
C         14.31500       15.06800       65.82900
C         12.15400       15.32000       68.17000
N         13.91100       17.68100       63.43000
C         14.32500       17.67000       62.03400
C         15.39100       18.73100       61.76500
O         16.36200       18.46200       61.05800
C         13.11700       17.85200       61.11400
C         12.24700       16.61700       60.87100
C         10.91800       16.98300       60.22800
C         12.99400       15.63300       60.00600
N         15.22900       19.91900       62.34300
C         16.19700       20.99400       62.15800
C         17.56200       20.66700       62.76700
O         18.59000       21.16200       62.29600
C         15.66600       22.30800       62.72900
C         16.39300       23.53200       62.21200
C         16.16600       24.76400       63.06000
O         15.45500       24.72100       64.05600
N         16.77800       25.87500       62.66500
N         17.57800       19.83500       63.80600
C         18.83800       19.48000       64.46600
C         19.70100       18.50700       63.66400
O         20.91900       18.53000       63.78600
C         18.60500       18.94900       65.88300
C         18.06800       19.94100       66.93000
C         18.01900       19.28000       68.31400
C         18.85000       21.29200       66.97200
N         19.07700       17.67300       62.83700
C         19.81000       16.66700       62.06300
C         20.99800       17.20300       61.24600
O         22.10800       16.67200       61.38400
C         18.85700       15.85100       61.18800
C         18.19000       14.59100       61.77100
C         18.25400       14.49100       63.28900
C         16.74100       14.50700       61.27000
N         20.79200       18.26000       60.41600
C         21.93800       18.81400       59.67800
C         22.91600       19.56600       60.58300
O         23.95900       20.03000       60.11100
C         21.30000       19.78800       58.68000
C         19.85300       19.60900       58.78100
C         19.55500       18.99500       60.10400
N         22.57800       19.67300       61.86800
C         23.39300       20.39800       62.82000
C         24.59000       19.65100       63.35900
O         25.47900       20.26100       63.96100
N         24.62000       18.33600       63.15200
C         25.68700       17.49500       63.72100
C         27.03500       17.70300       63.01000
O         28.08700       17.65200       63.65000
C         25.31300       15.99100       63.72700
O         24.92300       15.60600       62.40500
C         24.16900       15.71200       64.68300
N         26.99100       17.96000       61.70300
C         28.20300       18.14300       60.88300
C         29.21000       19.11200       61.48600
O         30.39600       18.78600       61.59000
C         27.85200       18.59400       59.46300
C         27.48000       17.46500       58.52400
C         26.05200       16.97400       58.70000
O         25.38800       17.25600       59.71100
N         25.56800       16.23100       57.71300
N         28.72900       20.29100       61.88400
C         29.56900       21.33600       62.45700
C         30.16900       20.91700       63.77400
O         31.28100       21.32500       64.09900
N         29.43500       20.09300       64.52500
C         29.92100       19.58800       65.81000
C         31.06300       18.60700       65.59900
O         32.05800       18.65800       66.32000
C         28.79400       18.97000       66.65400
C         27.72800       19.92900       67.21500
C         26.49000       19.17300       67.71200
C         28.30400       20.80800       68.31800
N         30.93700       17.73600       64.60000
C         32.03900       16.83900       64.23500
C         33.31500       17.61600       63.89600
O         34.40700       17.28600       64.37900
C         31.67300       15.94900       63.04600
C         30.49900       15.02300       63.25900
C         29.61700       14.76000       62.21700
C         30.26900       14.41200       64.48800
C         28.54200       13.92200       62.38400
C         29.19200       13.57000       64.67200
C         28.33100       13.33000       63.61400
O         27.24700       12.48700       63.77200
N         33.16000       18.64700       63.06900
C         34.27200       19.49400       62.66400
C         34.93200       20.16700       63.84500
O         36.16100       20.20300       63.94400
N         34.10600       20.69300       64.74500
C         34.58200       21.29600       65.97900
C         35.39900       20.29200       66.80500
O         36.49700       20.62100       67.27600
C         33.40800       21.85800       66.79500
C         33.81600       22.45400       68.12400
C         34.27400       23.77100       68.20700
C         33.73900       21.69700       69.29900
C         34.65000       24.32300       69.43900
C         34.11300       22.24100       70.52700
C         34.56800       23.55600       70.59500
N         34.86200       19.07900       66.96500
C         35.54800       18.01200       67.70600
C         36.91400       17.69000       67.07400
O         37.92100       17.63900       67.78300
C         34.64700       16.74000       67.89800
C         35.45000       15.55100       68.40000
C         33.49100       17.03500       68.86100
N         36.95300       17.52200       65.75000
C         38.22000       17.31300       65.03900
C         39.20500       18.46700       65.27100
O         40.38000       18.22900       65.55100
C         38.00800       17.05500       63.52100
C         37.33300       15.69300       63.29100
C         39.32800       17.14800       62.74200
C         38.06200       14.50700       63.90700
N         38.72200       19.70500       65.17200
C         39.54800       20.88600       65.43200
C         40.14400       20.84400       66.83000
O         41.32900       21.11500       67.00200
C         38.74300       22.16500       65.24000
N         39.32000       20.49000       67.81500
C         39.75400       20.42500       69.21000
C         40.76500       19.30500       69.44200
O         41.69000       19.44700       70.24500
C         38.55700       20.27800       70.14900
C         38.90600       20.46900       71.58700
C         39.10500       21.75100       72.10800
C         39.05800       19.36300       72.43100
C         39.44300       21.92500       73.46100
C         39.39900       19.52500       73.78000
C         39.59000       20.80600       74.29700
N         40.58700       18.20000       68.72600
C         41.51200       17.07900       68.79700
C         42.87600       17.44600       68.22600
O         43.90100       17.04800       68.76800
C         40.93800       15.85500       68.07700
C         41.57200       14.48700       68.37400
C         39.79300       15.12900       68.79200
C         41.17100       13.98600       69.75900
C         38.93000       14.40500       67.78100
C         41.19000       13.46600       67.30400
C         40.29800       14.17100       69.86900
N         42.88900       18.20100       67.13100
C         44.14200       18.76100       66.61900
C         44.76100       19.67700       67.68400
O         45.95500       19.58100       67.97400
C         43.95600       19.52600       65.27800
C         43.48700       18.57600       64.17200
C         45.25900       20.20800       64.85500
C         42.92600       19.27600       62.94400
N         43.92800       20.53500       68.27700
C         44.37400       21.52800       69.25100
C         45.15800       20.90800       70.40500
O         46.24800       21.37200       70.74700
C         43.19000       22.34600       69.78200
C         43.58300       23.41700       70.75400
C         44.24800       24.55900       70.31900
C         43.30000       23.28100       72.11200
C         44.62700       25.55600       71.22900
C         43.67200       24.26900       73.02500
C         44.33600       25.40700       72.58700
N         44.61100       19.84900       70.99000
C         45.26100       19.18800       72.11400
C         46.47700       18.35200       71.69000
O         47.23400       17.90000       72.53900
C         44.26700       18.34900       72.94700
C         43.75400       17.14800       72.14700
C         43.13100       19.22700       73.45000
C         42.86600       16.21200       72.92000
N         46.67100       18.15800       70.38900
C         47.84800       17.44200       69.88300
C         48.90900       18.36500       69.28100
O         49.80200       17.90900       68.56600
C         47.43300       16.36700       68.87300
C         46.89700       15.11900       69.54500
O         47.65700       14.32700       70.10100
N         45.58300       14.93400       69.49600
N         48.81200       19.65900       69.58400
C         49.73500       20.66400       69.05500
C         51.13300       20.59600       69.68300
O         51.58200       19.53200       70.12300
C         49.13600       22.06600       69.20700
C         48.59600       22.80500       67.98000
C         47.98300       21.87700       66.94000
C         47.60100       23.86600       68.41800
N         51.81100       21.74200       69.72800
C         53.21200       21.83200       70.16500
C         53.98700       22.71000       69.18700
O         53.74800       22.66200       67.96200
N         54.90500       23.52100       69.71500
C         55.65700       24.48500       68.89200
C         56.91300       23.88000       68.23400
O         57.58100       24.53500       67.42400
C         56.00100       25.74400       69.70700
O         56.77700       25.42900       70.85600
N         57.21500       22.62800       68.57800
C         58.34000       21.90100       67.99000
C         57.95200       21.23000       66.65600
O         58.75600       20.50100       66.06500
C         58.86300       20.85600       68.99100
C         60.38200       20.70300       68.94900
C         57.77300       19.88300       69.46200
O         60.94500       20.46000       67.85900
O         56.57300       20.24000       69.44700
O         61.01700       20.81800       70.01800
O         58.12300       18.75200       69.86000
N         56.73100       21.50400       66.18500
C         56.10200       20.78800       65.06800
C         56.74400       21.06800       63.71300
O         56.95200       22.22500       63.35100
C         54.62000       21.14900       65.01900
C         53.77800       20.26000       64.13100
S         52.08100       20.84800       63.99100
C         51.50300       20.69500       65.68500
N         57.04100       20.00400       62.96500
C         57.62700       20.12700       61.62200
C         56.56600       20.43200       60.56600
O         55.37000       20.23300       60.79700
C         58.38800       18.85500       61.23900
O         57.50300       17.78400       60.96800
N         57.01100       20.90600       59.40500
C         56.10100       21.19300       58.29200
C         55.38400       19.92800       57.79300
O         54.19300       19.98000       57.46000
C         56.81400       21.96100       57.14000
C         55.99000       21.95100       55.86000
C         57.09400       23.39500       57.56300
N         56.09600       18.79900       57.76600
C         55.48300       17.50800       57.42000
C         54.29200       17.19100       58.34000
O         53.19600       16.86500       57.86600
C         56.52500       16.35000       57.41100
C         55.84200       14.97700       57.39500
C         57.45200       16.48400       56.21300
N         54.50500       17.30900       59.65000
C         53.44400       17.05500       60.62100
C         52.28400       18.04500       60.47300
O         51.12000       17.64800       60.50300
C         53.99000       17.05700       62.05300
C         52.99100       16.49900       63.05700
C         53.52300       16.40900       64.47600
O         54.64300       16.85500       64.77500
N         52.71500       15.82700       65.37000
N         52.61400       19.32500       60.31500
C         51.61500       20.36800       60.09800
C         50.75200       20.05800       58.88900
O         49.51800       20.12000       58.96000
N         51.40100       19.70900       57.78000
C         50.68800       19.29200       56.58400
C         49.83700       18.04200       56.82200
O         48.72600       17.94900       56.29300
C         51.64400       19.09400       55.40900
C         52.30300       20.35400       54.83600
C         53.30700       19.97400       53.76000
C         51.28400       21.35800       54.29100
N         50.33200       17.09700       57.61800
C         49.54000       15.91600       57.96000
C         48.23700       16.27600       58.65800
O         47.19300       15.70500       58.35300
C         50.33600       14.93000       58.81000
C         51.33600       14.14700       58.00300
O         51.20800       14.02200       56.78700
N         52.34200       13.61200       58.67400
N         48.30000       17.23100       59.58200
C         47.10200       17.74300       60.23700
C         46.16600       18.40600       59.21700
O         44.94200       18.23000       59.27500
C         47.46500       18.74300       61.34300
C         47.92100       18.10400       62.62300
C         49.21000       18.32800       63.10800
C         47.06300       17.28900       63.35400
C         49.63800       17.74700       64.29400
C         47.48500       16.69700       64.53500
C         48.77500       16.92800       65.00600
N         46.74600       19.16700       58.28700
C         45.95200       19.85200       57.28600
C         45.20700       18.83600       56.43300
O         44.01200       18.99600       56.16200
C         46.81000       20.78000       56.42500
C         46.07200       21.68700       55.43400
C         44.92600       22.43200       56.09600
C         47.03200       22.67300       54.80300
N         45.91100       17.78200       56.03200
C         45.29200       16.69700       55.28400
C         44.18700       16.06000       56.09800
O         43.07600       15.84800       55.60100
N         44.49700       15.78500       57.36700
C         43.57300       15.14400       58.30600
C         42.25800       15.89700       58.45000
O         41.21700       15.28600       58.68500
C         44.22700       14.98800       59.66700
N         42.30500       17.22000       58.31600
C         41.12200       18.04600       58.51800
C         40.16600       18.00800       57.33300
O         38.98000       18.29900       57.48600
C         41.52600       19.48500       58.79800
O         41.90600       20.13300       57.60200
N         40.68000       17.64600       56.16200
C         39.89300       17.72200       54.93300
C         38.65000       16.82800       54.89400
O         37.57600       17.30700       54.53200
C         40.76500       17.51600       53.69600
C         41.92100       18.49800       53.49900
C         42.69100       18.12400       52.24100
C         41.44400       19.94300       53.44600
N         38.77600       15.53500       55.27400
C         37.58700       14.67300       55.22800
C         36.36000       15.23600       55.95400
O         35.29900       15.36100       55.34000
C         38.07800       13.37200       55.86900
C         39.52000       13.34500       55.54200
C         39.95800       14.77400       55.72000
N         36.49200       15.60400       57.22600
C         35.33900       16.19000       57.91800
C         34.92800       17.54700       57.33200
O         33.74600       17.84800       57.24200
C         35.50500       16.25400       59.47000
C         34.15800       16.53000       60.14400
C         36.54300       17.28100       59.88700
C         33.04400       15.62000       59.69000
N         35.90200       18.35000       56.92200
C         35.60200       19.66200       56.39100
C         34.62000       19.53900       55.23600
O         33.56900       20.17500       55.24900
C         36.86800       20.36000       55.94200
N         34.94100       18.68400       54.26600
C         34.18200       18.64500       53.02100
C         33.01700       17.66900       52.96300
O         31.98900       17.98000       52.35600
C         35.11400       18.60800       51.81200
C         35.90900       19.86300       51.68100
C         37.21600       19.92100       52.12600
C         35.31200       21.03000       51.19600
C         37.93800       21.10600       52.05000
C         36.02800       22.21700       51.11300
C         37.34200       22.25600       51.54300
N         33.14200       16.51200       53.60800
C         31.96000       15.67700       53.79800
C         30.96300       16.43700       54.68400
O         29.75800       16.37200       54.45400
C         32.26400       14.27100       54.38200
O         32.87500       14.39300       55.67400
C         33.15900       13.47600       53.43900
N         31.47500       17.18000       55.66800
C         30.63900       18.00600       56.52800
C         29.87200       19.05100       55.73600
O         28.64100       19.15200       55.85800
N         30.59400       19.81800       54.91500
C         29.98500       20.82900       54.05700
C         28.85800       20.25800       53.18500
O         27.71200       20.74200       53.22600
C         31.03600       21.50700       53.18100
C         30.51700       22.50300       52.13200
C         29.86700       23.70100       52.80500
C         31.62300       22.95100       51.16300
N         29.17300       19.23200       52.39900
C         28.21300       18.72900       51.41900
C         27.09400       17.90300       52.03400
O         25.93300       18.06900       51.63800
C         28.91900       18.00000       50.27900
C         29.71800       18.91200       49.41100
C         31.06200       19.15500       49.68100
C         29.11600       19.56800       48.33900
C         31.80400       20.02200       48.88000
C         29.84900       20.44000       47.52500
C         31.19200       20.66500       47.79400
N         27.42000       17.03500       52.99700
C         26.37900       16.25900       53.65800
C         25.46300       17.18200       54.44800
O         24.25500       16.97000       54.46200
C         26.94300       15.14000       54.54400
O         27.56200       15.63400       55.72100
N         26.02400       18.21300       55.08100
C         25.21900       19.18400       55.81900
C         24.12800       19.78100       54.94500
O         22.94600       19.75800       55.29700
N         24.53400       20.30600       53.79200
C         23.61300       20.83600       52.78200
C         22.59900       19.77200       52.31000
O         21.38500       20.02500       52.32400
C         24.39100       21.44400       51.56900
C         25.07700       22.73400       51.99600
C         23.46800       21.70200       50.39600
C         26.21400       23.13300       51.12500
N         23.09300       18.59800       51.90300
C         22.22800       17.53100       51.40200
C         21.23100       17.08100       52.47300
O         20.04600       16.89800       52.18600
C         23.05000       16.36000       50.90500
N         21.70900       16.93300       53.70700
C         20.86500       16.51700       54.80600
C         19.78900       17.56500       55.10400
O         18.63700       17.21600       55.41800
C         21.70900       16.24300       56.04900
C         20.96400       15.51200       57.12800
C         21.87700       15.05600       58.22000
O         22.76300       15.79500       58.63700
N         21.68100       13.82500       58.69400
N         20.16800       18.83800       55.00000
C         19.23500       19.93200       55.19900
C         18.05400       19.83400       54.25400
O         16.90200       20.04000       54.67100
N         18.34300       19.50800       52.98900
C         17.30900       19.34200       51.96300
C         16.33200       18.21200       52.31300
O         15.11700       18.36500       52.16000
C         17.93700       19.09600       50.59200
C         18.51300       20.34000       49.95000
C         19.34400       20.00100       48.73000
C         19.86400       21.26200       48.10900
N         21.13400       21.03200       47.38300
N         16.86500       17.08900       52.79400
C         16.02500       15.96700       53.16300
C         15.21100       16.31700       54.40600
O         14.00300       16.06300       54.45100
C         16.83500       14.67400       53.39400
C         15.90200       13.47800       53.51300
C         17.81000       14.44700       52.26300
N         15.86200       16.91100       55.40500
C         15.15700       17.32400       56.62300
C         14.02000       18.31100       56.29900
O         12.89800       18.16000       56.79100
C         16.13000       17.90100       57.65100
N         14.30700       19.29600       55.45400
C         13.28600       20.23100       54.97900
C         12.11600       19.50800       54.31300
O         10.96500       19.83700       54.57100
C         13.89000       21.26300       54.03100
N         12.41100       18.52400       53.46500
C         11.37300       17.69900       52.84700
C         10.56000       16.92500       53.90800
O          9.33600       16.78300       53.78400
C         11.97700       16.76400       51.83200
N         11.24100       16.46300       54.95800
C         10.59500       15.81300       56.08800
C          9.56300       16.67100       56.80400
O          8.59400       16.13600       57.37000
N          9.75900       17.99300       56.78500
C          8.79100       18.93700       57.36400
C          7.40200       18.78200       56.72000
O          6.37700       18.97200       57.37800
C          9.30400       20.41400       57.28200
C         10.53900       20.62200       58.17900
C          8.20800       21.42000       57.62000
C         10.26500       20.66700       59.66100
N          7.37300       18.40800       55.44500
C          6.10600       18.24100       54.74400
C          5.41200       16.94900       55.13700
O          4.18600       16.87700       55.07400
C          6.27600       18.33300       53.21900
C          7.27700       19.42300       52.72100
C          6.04500       19.72200       52.63100
C          7.09600       20.81100       53.36300
C          4.64000       20.24400       52.86600
O          5.98100       21.30600       53.52400
O          3.66100       19.70400       52.35300
N          8.20900       21.43800       53.71800
N          4.54000       21.31200       53.63900
N          6.18600       15.93300       55.53000
C          5.61400       14.72000       56.11800
C          4.92900       15.12400       57.42100
O          3.77400       14.80200       57.66200
C          6.68100       13.61100       56.37600
C          7.30800       13.14200       55.05400
C          6.07300       12.41400       57.17000
C          8.52200       12.26500       55.21500
N          5.65300       15.86200       58.24400
C          5.12400       16.40800       59.48000
C          3.83000       17.20100       59.26800
O          2.89200       17.08400       60.04500
C          6.19300       17.29900       60.09700
C          6.05700       17.74700       61.53600
C          5.82500       16.53100       62.42100
C          7.33400       18.47800       61.90300
N          3.79600       18.00500       58.20500
C          2.63500       18.82100       57.84900
C          1.40100       17.98300       57.52100
O          0.31000       18.28600       57.98000
C          2.97400       19.72700       56.68100
N          1.58800       16.93300       56.73100
C          0.48300       16.15200       56.19000
C          0.17500       14.88400       56.99500
O         -0.98200       14.49300       57.11400
C          0.78000       15.76900       54.74100
C          0.81400       16.92500       53.76900
C         -0.59400       17.24200       53.28000
C         -0.56300       18.15000       52.05800
N         -0.04900       19.49600       52.40200
N          1.21000       14.23700       57.52100
C          1.07500       12.96800       58.22000
C          1.93000       12.99200       59.48800
O          2.91300       12.25400       59.59500
C          1.51400       11.81500       57.31200
C          0.82900       11.74700       55.96300
C         -0.37800       10.87700       56.01200
C         -0.98200       10.72800       54.64000
N         -2.18600        9.84500       54.73900
N          1.55700       13.84200       60.46200
C          2.39500       14.01700       61.65100
C          2.71200       12.71300       62.39000
O          3.75000       12.60700       63.04500
C          1.56200       14.94800       62.53800
C          0.18700       14.92800       61.96900
C          0.34700       14.68100       60.52100
N          1.83100       11.72600       62.27500
C          2.04000       10.44100       62.93400
C          3.16700        9.62200       62.28100
O          3.61500        8.63000       62.84200
C          0.72300        9.64600       63.02300
C          0.17000        9.09300       61.69000
C         -0.51200       10.14300       60.76800
O         -1.02700        9.72700       59.70100
O         -0.54500       11.36200       61.08700
N          3.62600       10.05400       61.10500
C          4.71200        9.38500       60.39200
C          6.01200       10.19400       60.37100
O          6.89600        9.93700       59.55200
C          4.28400        9.08100       58.96700
C          3.21100        8.05100       58.87100
N          3.46400        6.70000       58.99000
C          1.88100        8.16900       58.65700
C          2.33400        6.03000       58.85800
N          1.36000        6.89800       58.65400
N          6.13200       11.15800       61.27900
C          7.29200       12.04100       61.33600
C          8.63600       11.30900       61.46900
O          9.64100       11.76700       60.90600
C          7.12600       13.05200       62.44900
N          8.65500       10.18600       62.19800
C          9.87000        9.37800       62.35200
C         10.46500        8.99200       60.99800
O         11.69200        8.95500       60.84000
C          9.59800        8.13100       63.18500
O          9.03300        8.55000       64.42500
C         10.88500        7.32700       63.45300
N          9.59400        8.72200       60.02700
C         10.02300        8.34400       58.69300
C         10.87800        9.44900       58.06700
O         11.92100        9.16800       57.45500
C          8.81500        8.02300       57.82800
C          8.14700        6.73300       58.20700
C          6.94300        6.47600       57.33300
C          6.34000        5.13800       57.63500
N          5.94700        5.05400       59.05700
N         10.44100       10.69800       58.25300
C         11.18700       11.87500       57.80500
C         12.55500       11.97100       58.45900
O         13.54200       12.29600       57.80000
N         12.61500       11.68000       59.75700
C         13.88200       11.66900       60.47400
C         14.82400       10.61900       59.86900
O         15.98800       10.92200       59.58200
C         13.68700       11.44700       62.00500
C         12.97500       12.65900       62.63400
C         15.02600       11.17600       62.70500
C         12.36900       12.37400       64.02300
N         14.31400        9.40100       59.66100
C         15.11500        8.30700       59.10200
C         15.67500        8.65600       57.69900
O         16.87200        8.45800       57.44300
C         14.35200        6.97300       59.11800
C         14.11800        6.54700       60.57300
C         15.12600        5.89400       58.35700
C         13.13400        5.38300       60.76700
N         14.83400        9.20100       56.81100
C         15.29800        9.63300       55.49000
C         16.47400       10.59700       55.63100
O         17.50200       10.44900       54.95800
C         14.18600       10.31300       54.68800
C         13.10700        9.38100       54.20000
C         11.76500        9.76400       54.27900
C         13.42100        8.13600       53.65100
C         10.75900        8.92700       53.82800
C         12.42100        7.28500       53.19900
C         11.08500        7.68600       53.28400
N         16.32000       11.58000       56.51500
C         17.38200       12.55000       56.77600
C         18.61800       11.88900       57.41300
O         19.75600       12.19300       57.03300
C         16.86100       13.67400       57.64800
N         18.38200       10.97700       58.36000
C         19.45100       10.27000       59.05000
C         20.36700        9.50900       58.08600
O         21.56700        9.39100       58.34300
C         18.88100        9.33500       60.08200
N         19.81800        9.01000       56.97500
C         20.62300        8.25600       56.00500
C         21.75800        9.07800       55.40300
O         22.77400        8.52300       55.00300
C         19.76200        7.66700       54.88500
C         18.71600        6.66400       55.33500
S         19.38000        5.27700       56.27500
C         19.19800        5.76600       58.00900
N         21.58600       10.39400       55.33800
C         22.64500       11.26800       54.84500
C         23.75000       11.39900       55.90100
O         24.91500       11.60200       55.56300
C         22.09700       12.65300       54.39700
C         23.18500       13.49600       53.73300
C         20.95500       12.46300       53.41800
N         23.38100       11.25400       57.17100
C         24.32400       11.36600       58.27800
C         25.55700       10.46000       58.12700
O         26.66200       10.86000       58.49400
C         23.61300       11.07400       59.60400
C         24.42700       11.37300       60.84800
C         24.69000       12.86400       61.05800
O         24.03300       13.71400       60.41000
O         25.55900       13.19500       61.89100
N         25.36200        9.25400       57.59400
C         26.45200        8.30400       57.34700
C         27.75000        8.96800       56.84600
O         28.83600        8.68500       57.35400
C         26.03300        7.21700       56.30600
O         24.72600        6.72900       56.60700
C         27.01200        6.04600       56.29400
N         27.62800        9.85900       55.86700
C         28.78500       10.34800       55.12200
C         29.56200       11.37800       55.89500
O         30.77800       11.46800       55.74400
C         28.36700       10.74300       53.69400
C         27.60200        9.56700       53.16200
C         26.21100        9.57600       53.11500
C         28.26200        8.37600       52.87300
C         25.51000        8.45300       52.72200
C         27.57100        7.25600       52.48400
C         26.19800        7.29900       52.40900
O         25.50700        6.18600       52.01100
N         28.86900       12.10000       56.77400
C         29.52300       12.93600       57.77500
C         30.25600       12.06700       58.81200
O         31.38200       12.38600       59.19800
C         28.52000       13.85300       58.44800
N         29.63500       10.96800       59.24700
C         30.25700       10.07700       60.22400
C         31.52200        9.43400       59.64800
O         32.57500        9.44900       60.29300
C         29.25800        9.02600       60.77600
C         28.23700        9.71600       61.68800
C         29.97800        7.93000       61.55100
C         26.97700        8.89600       61.93900
N         31.42800        8.90300       58.43200
C         32.59600        8.33300       57.75800
C         33.72000        9.37200       57.60900
O         34.88900        9.07500       57.91700
C         32.21500        7.73200       56.40200
C         31.26100        6.53100       56.37200
C         30.95400        6.13800       54.92600
C         31.79800        5.32600       57.16900
N         33.35900       10.58400       57.16200
C         34.28500       11.72100       57.11000
C         34.93100       12.01200       58.46000
O         36.15400       12.20600       58.54600
N         34.11200       12.01900       59.51500
C         34.58200       12.21800       60.88400
C         35.57400       11.13400       61.30500
O         36.63100       11.44600       61.85600
C         33.39900       12.29600       61.85600
C         33.80000       12.43400       63.31200
C         34.29000       13.64200       63.81100
C         33.67400       11.35700       64.18700
C         34.65300       13.76700       65.15300
C         34.03900       11.47500       65.52500
C         34.52700       12.68100       66.00800
N         35.24400        9.87200       61.02700
C         36.08500        8.74000       61.43900
C         37.47300        8.78800       60.77000
O         38.49900        8.60500       61.43700
C         35.35700        7.38400       61.20700
C         36.31600        6.20400       61.30500
C         34.21000        7.22900       62.20000
N         37.49700        9.07200       59.46500
C         38.75800        9.21400       58.73600
C         39.59200       10.37000       59.28800
O         40.77900       10.19000       59.58800
C         38.54200        9.34500       57.21400
C         38.01400        8.02100       56.63700
C         39.83300        9.77200       56.50200
C         38.88600        6.78400       56.89600
N         38.96800       11.54100       59.44100
C         39.64200       12.68900       60.05700
C         40.20700       12.33800       61.43200
O         41.35700       12.66000       61.73100
C         38.71000       13.89200       60.16100
O         38.63100       14.57000       58.92000
N         39.40100       11.65800       62.24700
C         39.80600       11.23300       63.58600
C         41.07900       10.38600       63.55400
O         42.05200       10.70000       64.24600
C         38.66800       10.47100       64.27900
C         38.89500       10.24600       65.74000
C         38.45800       11.18000       66.67500
C         39.54500        9.09500       66.18700
C         38.67600       10.97300       68.04700
C         39.77300        8.87900       67.55000
C         39.33800        9.82100       68.48200
N         41.06800        9.32600       62.74500
C         42.23000        8.45500       62.59100
C         43.46400        9.21700       62.12300
O         44.55700        9.00600       62.64400
C         41.93100        7.31200       61.61700
C         40.93900        6.23300       62.05200
C         40.69200        5.27400       60.89500
C         41.42100        5.48300       63.29100
N         43.27700       10.10200       61.14600
C         44.37900       10.86400       60.57300
C         44.99200       11.87000       61.54800
O         46.20500       12.09100       61.52800
C         43.94200       11.55100       59.27800
C         43.87600       10.66500       58.03400
C         43.33300       11.45200       56.86300
C         45.24300       10.07500       57.70800
N         44.15500       12.47100       62.39400
C         44.62300       13.41300       63.42200
C         45.47900       12.69900       64.46400
O         46.54600       13.18300       64.84100
C         43.45600       14.17400       64.10900
C         43.94900       14.94200       65.33400
C         42.80000       15.13000       63.12500
N         45.01500       11.53900       64.91000
C         45.77800       10.72300       65.83800
C         47.07800       10.22400       65.23000
O         48.02000        9.93400       65.94700
C         44.95300        9.53200       66.31900
C         43.73300        9.78100       67.20600
C         43.25200        8.45800       67.77600
C         44.03000       10.76700       68.32600
N         47.13500       10.12700       63.91100
C         48.31200        9.58700       63.24500
C         49.19300       10.65000       62.57500
O         50.23200       10.32900       61.99900
C         47.89300        8.47900       62.26600
C         49.06400        7.64700       61.77400
C         47.63300        7.14800       62.96500
O         49.49800        7.78500       60.62600
O         48.37500        6.18400       62.78000
N         49.58200        6.77700       62.63700
N         46.58400        7.09700       63.77900
N         48.79300       11.91500       62.68200
C         49.51900       13.01900       62.04700
C         50.94300       13.13200       62.57100
O         51.85700       13.46300       61.81000
C         48.78400       14.32500       62.24300
O         51.20400       12.89000       63.75500
N         59.71900       23.55700       49.11200
C         58.62200       22.66800       49.60800
C         58.70900       21.27400       49.01100
O         58.84700       20.28600       49.73400
C         57.23900       23.25800       49.30000
C         56.07000       22.28600       49.52900
S         55.76200       21.89000       51.27300
C         54.32800       22.91200       51.59500
N         58.60100       21.20300       47.68700
C         58.65500       19.93300       46.98000
C         60.00300       19.26200       47.21900
O         60.07500       18.05000       47.43300
C         58.40000       20.14200       45.48800
C         57.73900       18.96700       44.78900
S         56.27400       18.29100       45.60200
C         56.95400       16.77700       46.29700
N         61.05800       20.07500       47.21100
C         62.39500       19.61700       47.52700
C         62.49000       19.13800       48.98100
O         63.16500       18.14500       49.27700
C         63.40500       20.72800       47.25400
C         64.81500       20.19300       47.06200
O         65.48600       19.86300       48.07500
O         65.25300       20.10000       45.88900
N         61.80400       19.84300       49.87700
C         61.77400       19.47700       51.29100
C         61.08400       18.13300       51.52200
O         61.62700       17.27500       52.21200
C         61.10900       20.58800       52.10800
C         60.64500       20.18700       53.49600
C         61.55400       20.05100       54.55100
C         59.28900       19.96500       53.76300
C         61.12800       19.69200       55.83600
C         58.85400       19.60400       55.04600
C         59.78100       19.47000       56.07500
O         59.36300       19.11700       57.33800
N         59.89700       17.95300       50.94000
C         59.15200       16.69400       51.06400
C         59.95100       15.52200       50.50000
O         60.00900       14.44800       51.10000
C         57.77900       16.78600       50.38100
C         56.75300       17.77400       50.94500
C         55.50800       17.80100       50.07500
C         56.38800       17.45700       52.37900
N         60.57900       15.74700       49.34900
C         61.42600       14.73900       48.71300
C         62.54300       14.31100       49.66600
O         62.64800       13.13500       50.01300
C         61.97300       15.23400       47.33100
C         60.85000       15.20000       46.27600
C         63.17200       14.39900       46.88300
C         60.97900       16.22000       45.16400
N         63.32900       15.28200       50.12500
C         64.54200       15.01700       50.90600
C         64.31200       14.63700       52.38500
O         65.24400       14.20500       53.05900
C         65.53700       16.20800       50.81400
O         64.87300       17.42200       51.18900
C         66.08500       16.35200       49.38900
N         63.08400       14.79200       52.88000
C         62.74900       14.45000       54.27400
C         61.76300       13.28500       54.37800
O         61.16100       13.07100       55.43800
C         62.16500       15.66300       55.01100
C         63.06100       16.88300       55.04300
C         64.38100       16.62000       55.71900
O         64.43200       16.16400       56.86300
N         65.46700       16.90500       55.01200
N         61.60900       12.54200       53.27900
C         60.58800       11.48800       53.14500
C         59.18300       11.89600       53.63600
O         58.56900       11.22500       54.48200
C         61.05200       10.17400       53.78600
C         62.01800        9.41300       52.90400
O         63.20600        9.72800       52.84700
N         61.51200        8.40100       52.21100
N         58.68700       13.00800       53.09800
C         57.36900       13.50500       53.44800
C         56.32300       13.02600       52.46400
O         55.34400       13.73000       52.22000
N         56.53100       11.83600       51.89300
C         55.53600       11.18900       51.02600
C         54.22200       10.89900       51.74200
O         53.15900       10.82000       51.11800
N         54.30900       10.74300       53.06200
C         53.15700       10.60900       53.94900
C         52.05700       11.63500       53.61100
O         50.88100       11.28700       53.54800
C         53.64600       10.72700       55.40500
C         52.61300       10.53300       56.50400
C         52.54100       10.72700       56.46900
S         53.36800       10.07200       58.08800
S         51.51700        9.23900       56.52000
C         54.72300       11.24400       58.25100
C         52.48500        8.18100       57.59400
N         52.44900       12.88200       53.36600
C         51.48800       13.94700       53.09900
C         50.56000       13.59100       51.92500
O         49.34400       13.83200       51.98200
C         52.17300       15.35000       52.91200
C         53.10200       15.66200       54.08200
C         51.15800       16.41700       52.52000
C         52.89800       15.46600       51.57200
C         52.92400       15.75100       54.17500
N         51.13100       12.99400       50.88100
C         50.36200       12.60500       49.71000
C         49.46300       11.41600       49.97800
O         48.38500       11.32200       49.39500
C         51.28900       12.33700       48.53100
C         52.06000       13.54500       48.10100
C         53.42300       13.63100       48.34800
C         51.41100       14.61600       47.47600
C         54.13900       14.75400       47.96500
C         52.11200       15.74100       47.09600
C         53.48100       15.81400       47.33700
N         49.90300       10.51900       50.86200
C         49.08800        9.38600       51.28800
C         47.89700        9.84400       52.13900
O         46.78900        9.31600       52.00400
C         49.93500        8.37600       52.04200
N         48.13000       10.82500       53.01000
C         47.05700       11.44300       53.78800
C         46.04400       12.08500       52.82300
O         44.82400       11.86800       52.94300
C         47.59900       12.47900       54.81300
C         46.45900       13.21200       55.49800
C         48.48600       11.80000       55.85300
N         46.55800       12.84900       51.85500
C         45.72700       13.42900       50.80800
C         44.96800       12.35000       50.03300
O         43.80600       12.54900       49.65900
C         46.56600       14.28700       49.85800
C         45.85800       15.20500       48.86400
C         47.00100       15.66500       50.36400
C         45.08600       16.30400       49.56900
C         47.88200       16.35100       49.34300
C         46.87500       15.80900       47.92400
C         45.80200       16.53200       50.70000
N         45.62200       11.21000       49.81200
C         44.99400       10.06800       49.16500
C         43.73700        9.64400       49.91700
O         42.67200        9.47500       49.32300
C         45.96700        8.91400       49.08700
N         43.87000        9.48100       51.23000
C         42.74800        9.09100       52.06900
C         41.62500       10.12600       52.02700
O         40.45000        9.77200       51.85700
C         43.21700        8.85400       53.49500
C         44.03500        7.60700       53.60900
S         44.73300        7.36700       55.24100
C         43.24500        7.34100       56.25300
N         41.99400       11.40100       52.16200
C         41.02000       12.47800       52.09300
C         40.25300       12.42500       50.76500
O         39.03100       12.45500       50.77300
C         41.68500       13.82900       52.31200
N         40.96700       12.29400       49.64400
C         40.35400       12.23800       48.30200
C         39.36100       11.09100       48.12400
O         38.23000       11.30800       47.67100
C         41.42200       12.17000       47.18500
O         42.42400       11.20900       47.52600
O         42.29100       13.29900       47.30300
C         42.07600       13.51700       46.99500
C         40.79500       12.18200       45.80800
N         39.78600        9.88100       48.48600
C         38.92500        8.70000       48.43700
C         37.64700        8.90000       49.25800
O         36.55000        8.56400       48.80600
C         39.68400        7.47200       48.91000
N         37.79300        9.47200       50.45000
C         36.67100        9.68500       51.34700
C         35.73600       10.79000       50.87300
O         34.53000       10.56800       50.76600
C         37.16900       10.02700       52.75500
O         38.13100        9.04500       53.16800
C         36.00300       10.08500       53.75400
N         36.29800       11.97000       50.59600
C         35.52300       13.17300       50.25800
C         34.64500       12.97700       49.02100
O         33.42800       13.14300       49.09100
C         36.43600       14.43600       50.10500
C         36.99700       14.86100       51.45900
C         35.68800       15.62800       49.48500
C         38.21200       15.77700       51.35000
N         35.24900       12.61000       47.89800
C         34.49700       12.61300       46.64300
C         33.43900       11.50900       46.51100
O         32.33200       11.75300       46.01200
C         35.44200       12.69100       45.44500
C         36.21000       13.96800       45.39500
C         37.51500       14.02600       45.88100
C         35.61600       15.13000       44.90400
C         38.24000       15.22100       45.85400
C         36.32700       16.33200       44.86500
C         37.64800       16.37900       45.34700
N         33.77100       10.31100       46.98400
C         32.78500        9.23700       47.07600
C         31.66100        9.59900       48.06600
O         30.48700        9.31900       47.80000
C         33.45000        7.93500       47.48900
O         33.98900        8.06200       48.78400
N         32.02400       10.21300       49.19800
C         31.04900       10.67900       50.17100
C         30.10400       11.72400       49.59900
O         28.90000       11.65700       49.82800
N         30.65000       12.69100       48.85400
C         29.84400       13.72900       48.23600
C         28.84700       13.09900       47.27300
O         27.67100       13.46900       47.28400
C         30.69900       14.77500       47.51400
C         31.45500       15.63400       48.52400
C         29.82800       15.68100       46.63900
C         32.47600       16.57100       47.88900
N         29.31800       12.14600       46.46200
C         28.46500       11.38200       45.55200
C         27.29500       10.73900       46.27600
O         26.12800       10.88800       45.88300
N         27.60400       10.04200       47.36500
C         26.57900        9.42200       48.19500
C         25.67800       10.44700       48.87000
O         24.46000       10.29800       48.82100
C         27.19000        8.48400       49.23300
O         27.52000        7.23100       48.65500
N         26.25100       11.48600       49.48300
C         25.43300       12.49700       50.14900
C         24.42300       13.06700       49.15100
O         23.22500       13.16100       49.44300
C         26.29500       13.59200       50.75400
N         24.90100       13.40800       47.95600
C         24.02600       13.95500       46.93300
C         22.99300       12.94500       46.44100
O         21.80100       13.26800       46.37600
C         24.83400       14.52000       45.77900
C         25.34800       15.90000       46.09600
C         26.25700       16.40500       45.01900
C         26.44600       17.89900       45.15100
N         25.21400       18.60500       44.70900
N         23.43900       11.73000       46.11800
C         22.53900       10.70800       45.61400
C         21.51000       10.25400       46.64200
O         20.31900       10.16200       46.33500
N         21.97000        9.95100       47.85700
C         21.09500        9.56000       48.95900
C         20.16100       10.72600       49.29900
O         18.97100       10.51400       49.59300
C         21.91700        9.13900       50.20900
C         21.03600        9.00000       51.46100
C         22.64600        7.85000       49.93700
N         20.70500       11.94900       49.24800
C         19.93800       13.16000       49.54000
C         18.78300       13.35400       48.56900
O         17.62300       13.53000       48.98600
N         19.09600       13.29500       47.28000
C         18.08600       13.41900       46.25600
C         16.98400       12.36400       46.38900
O         15.79500       12.69800       46.34200
C         18.70900       13.35000       44.86400
C         17.66600       13.35900       43.77400
S         18.36600       13.43100       42.13700
C         18.79800       15.17600       42.02500
N         17.37900       11.10200       46.54400
C         16.42000       10.00400       46.67400
C         15.57400       10.21100       47.93300
O         14.35500       10.05600       47.89600
C         17.11600        8.61200       46.66800
O         17.96800        8.51200       45.51700
C         16.09800        7.49700       46.59600
N         16.22900       10.60400       49.02500
C         15.55200       10.96800       50.27100
C         14.46000       12.02000       50.11200
O         13.36900       11.89100       50.69900
N         14.74600       13.06100       49.32300
C         13.74800       14.09400       49.01700
C         12.52700       13.50500       48.30200
O         11.38700       13.78500       48.68200
C         14.36600       15.20700       48.18600
C         15.41000       16.02000       48.90900
C         16.12000       16.99400       47.97700
O         15.46900       17.94800       47.50800
O         17.33200       16.81400       47.70000
N         12.78100       12.67800       47.28200
C         11.73000       11.99300       46.53400
C         10.93700       11.05100       47.44300
O          9.70300       11.00200       47.37800
C         12.33100       11.23500       45.34500
N         11.65800       10.31800       48.29000
C         11.05400        9.38100       49.23200
C         10.16600       10.12900       50.22900
O          9.06500        9.67500       50.56500
C         12.13100        8.59600       49.95600
N         10.63900       11.28700       50.68400
C          9.88400       12.07100       51.64300
C          8.59200       12.56900       51.00300
O          7.51700       12.48500       51.60900
C         10.71200       13.21600       52.18200
N          8.69600       13.06000       49.76900
C          7.52700       13.51700       49.00700
C          6.47600       12.40200       48.85900
O          5.29000       12.63100       49.14500
C          7.94300       14.06300       47.66000
N          6.90900       11.20400       48.45300
C          6.01000       10.06300       48.38700
C          5.35900        9.78000       49.74400
O          4.16400        9.48200       49.80000
C          6.73100        8.81500       47.87800
C          5.90000        7.53300       47.82800
C          4.71700        7.68500       46.88700
C          6.74000        6.34500       47.43200
N          6.13700        9.88900       50.82600
C          5.66200        9.53200       52.17100
C          4.52500       10.43500       52.66100
O          3.70500       10.01000       53.48100
C          6.82900        9.50100       53.18500
O          7.82300        8.59700       52.70700
C          6.38200        9.02900       54.56000
N          4.46300       11.66200       52.13900
C          3.43800       12.62200       52.56400
C          2.04600       12.17400       52.16300
O          1.07000       12.63500       52.73500
C          3.67600       14.06600       52.01900
O          3.44200       14.10000       50.60600
C          5.08800       14.53600       52.30800
N          1.95300       11.29600       51.17500
C          0.65800       10.77000       50.79600
C          0.55700        9.24400       50.95000
O         -0.50300        8.73100       51.30800
C          0.27500       11.22100       49.39100
O          0.90200       10.42200       48.41200
N          1.65600        8.53100       50.70200
C          1.68400        7.07700       50.84400
C          2.78700        6.59600       51.79400
O          3.78500        6.04200       51.34100
C          1.82900        6.42000       49.47300
C          0.68300        6.70700       48.53300
C          1.02800        6.39300       47.10500
O          1.24700        5.25000       46.74400
N          1.08800        7.42000       46.27800
N          2.59900        6.79300       53.12200
C          3.63300        6.41800       54.09300
C          3.85200        4.91200       54.18900
O          4.89000        4.47700       54.67100
C          3.09400        6.96800       55.42000
C          1.63700        7.07000       55.23800
C          1.41300        7.36900       53.78700
N          2.87600        4.14100       53.71800
C          2.93500        2.68100       53.70300
C          4.07000        2.11700       52.84100
O          4.43600        0.95200       52.96500
C          1.59000        2.10000       53.23900
C          1.28700        2.23000       51.73600
C          0.43000        3.44600       51.36500
O          0.34700        4.42100       52.15700
O         -0.16400        3.41500       50.25900
N          4.62700        2.93800       51.96600
C          5.64100        2.46600       51.05000
C          7.04500        2.81600       51.51900
O          8.01500        2.73700       50.76500
C          5.33700        3.00200       49.66400
C          4.04800        2.40000       49.13400
C          3.56000        3.09100       47.89400
C          2.32200        2.39300       47.36200
N          2.02300        2.88800       45.99500
N          7.13300        3.15800       52.79900
C          8.35800        3.61200       53.43700
C          9.53400        2.65200       53.25900
O         10.59200        3.06000       52.78300
C          8.09500        3.86700       54.92600
C          9.32400        4.21000       55.71200
C         10.00900        5.39800       55.47800
C          9.80000        3.34900       56.68400
C         11.14800        5.72500       56.20900
C         10.94000        3.66500       57.41500
C         11.61600        4.85700       57.17900
N          9.34600        1.38700       53.64100
C         10.42000        0.40100       53.62000
C         11.04600        0.27400       52.24500
O         12.27500        0.25900       52.10300
N         10.19800        0.19600       51.22400
C         10.66300        0.06200       49.84900
C         11.37500        1.33900       49.41800
O         12.40100        1.27300       48.73800
C          9.50500       -0.29500       48.90100
C          8.64300       -1.51600       49.33000
C          9.03500       -1.74400       48.99100
C          7.37300       -1.14800       50.12600
C          9.96900       -2.71400       48.29200
O          6.26800       -1.15700       49.58400
O         11.06600       -2.99800       48.76600
N          7.53200       -0.83800       51.40900
N          9.52900       -3.23700       47.15800
N         10.85100        2.49100       49.84000
C         11.47000        3.79200       49.53200
C         12.84400        3.88600       50.16900
O         13.78400        4.43000       49.57700
C         10.59400        4.93800       50.00100
N         12.95700        3.33600       51.37600
C         14.20400        3.34500       52.11800
C         15.28500        2.55900       51.37600
O         16.41900        3.02300       51.26500
C         13.98300        2.80200       53.52600
C         15.06200        3.05000       54.57600
C         15.52200        4.50400       54.55800
C         14.55200        2.64400       55.95100
N         14.92400        1.38500       50.85700
C         15.85400        0.55800       50.08400
C         16.38000        1.34700       48.88500
O         17.58900        1.40700       48.65400
C         15.21700       -0.78100       49.63700
C         14.95300       -1.66700       50.86000
C         16.11100       -1.51100       48.62400
C         14.02200       -2.83400       50.59100
N         15.48100        1.96900       48.13300
C         15.90500        2.79200       47.00900
C         16.88900        3.87700       47.45200
O         17.88600        4.11900       46.77100
C         14.70400        3.40800       46.29000
C         13.92800        2.50400       45.33800
C         12.63900        3.18800       44.90800
C         14.78900        2.15100       44.14000
N         16.62600        4.50800       48.59700
C         17.51700        5.55200       49.11100
C         18.92900        5.04900       49.44500
O         19.90300        5.80200       49.31900
C         16.91000        6.24900       50.32600
C         17.59200        7.57400       50.65200
C         17.22000        8.11300       52.01800
O         16.55500        7.44600       52.80400
N         17.65400        9.32300       52.30800
N         19.03500        3.78800       49.86900
C         20.32800        3.20100       50.23800
C         21.23100        2.91000       49.03900
O         22.44500        2.92400       49.17700
C         20.14500        1.93200       51.09200
C         19.45700        2.09500       52.46400
C         19.46900        0.78300       53.22200
C         20.06700        3.23600       53.31100
N         20.65100        2.66400       47.86700
C         21.45200        2.34600       46.68100
C         22.58400        3.34700       46.37300
O         23.73300        2.92200       46.22900
C         20.56000        2.10900       45.46000
C         19.99200        0.71500       45.16300
C         20.05100       -0.26000       46.33200
C         18.56400        0.85800       44.66000
N         22.28600        4.67000       46.28600
C         23.38500        5.61300       46.03300
C         24.31600        5.75400       47.23500
O         25.30800        6.48400       47.16900
C         22.67100        6.94900       45.76300
C         21.24700        6.63500       45.63800
C         20.99900        5.37500       46.39500
N         24.00200        5.05100       48.31600
C         24.75600        5.18500       49.54200
C         25.96200        4.27900       49.66200
O         26.74400        4.41900       50.60500
N         26.11700        3.34200       48.73000
C         27.26200        2.42500       48.76900
C         28.58600        3.10700       48.35800
O         29.64900        2.76500       48.89000
C         27.03300        1.18100       47.89500
O         26.65400        1.60400       46.57700
C         25.94200        0.29800       48.49100
N         28.50900        4.07300       47.44300
C         29.69000        4.78300       46.93700
C         30.63000        5.29700       48.02600
O         31.83200        5.03500       47.97700
C         29.27800        5.94200       46.01300
C         29.03100        5.53000       44.58000
C         27.65100        4.93600       44.34400
O         26.97000        4.46300       45.27300
N         27.22400        4.95400       43.08200
N         30.07800        6.02400       48.99900
C         30.86400        6.60200       50.08300
C         31.47800        5.54200       50.97600
O         32.54100        5.76100       51.56300
N         30.80400        4.39700       51.09000
C         31.32900        3.27400       51.84700
C         32.55200        2.67400       51.15000
O         33.54400        2.36300       51.81400
C         30.25200        2.21000       52.08400
C         29.13000        2.55700       53.06700
C         28.01900        1.51100       53.01900
C         29.68100        2.68000       54.47800
N         32.48800        2.51700       49.82700
C         33.65300        2.07500       49.06000
C         34.85100        2.99800       49.27900
O         35.97300        2.53600       49.52300
C         33.36400        2.01700       47.55900
C         32.29100        1.05200       47.13200
C         31.41800        1.39300       46.09500
C         32.14100       -0.19900       47.75300
C         30.42200        0.52200       45.68400
C         31.14400       -1.08500       47.35000
C         30.29100       -0.71200       46.31300
O         29.29700       -1.54800       45.88900
N         34.60800        4.30100       49.17700
C         35.64700        5.30400       49.39100
C         36.25400        5.19700       50.77500
O         37.47000        5.23900       50.92900
N         35.40100        5.04100       51.78300
C         35.85200        4.87100       53.15400
C         36.76800        3.65100       53.28400
O         37.86100        3.75700       53.84600
C         34.65500        4.75100       54.08600
C         35.02300        4.52400       55.51700
C         35.37600        5.59700       56.34300
C         34.99800        3.24200       56.05700
C         35.71400        5.38400       57.70500
C         35.33500        3.02100       57.40400
C         35.69700        4.09100       58.22400
N         36.31800        2.51000       52.75400
C         37.10000        1.26500       52.74500
C         38.48200        1.46000       52.08700
O         39.50200        1.07500       52.66800
C         36.29900        0.08600       52.10900
C         37.18800       -1.11400       51.84300
C         35.15400       -0.31100       53.00900
N         38.51600        2.08300       50.90700
C         39.78900        2.42400       50.24500
C         40.67400        3.29500       51.14300
O         41.85900        3.00800       51.29600
C         39.59100        3.08800       48.83700
C         39.03900        2.07600       47.82500
C         40.89900        3.68300       48.31100
C         39.85100        0.77000       47.73100
N         40.09300        4.33500       51.74900
C         40.82600        5.21000       52.66200
C         41.45400        4.41000       53.81500
O         42.61800        4.62900       54.18000
C         39.92400        6.30200       53.19300
N         40.68300        3.47000       54.36300
C         41.12700        2.67200       55.48300
C         42.21900        1.70400       55.04400
O         43.13400        1.37800       55.81700
C         39.95400        1.92300       56.11300
C         40.29700        1.26800       57.41700
C         40.42100        2.02300       58.58000
C         40.52500       -0.10300       57.48000
C         40.76100        1.41400       59.79900
C         40.86600       -0.72600       58.69500
C         40.97900        0.03500       59.85700
N         42.13100        1.24800       53.80000
C         43.13600        0.32800       53.26200
C         44.47200        1.03900       53.08200
O         45.52900        0.48300       53.39400
C         42.66300       -0.29800       51.94700
C         43.37500       -1.55500       51.44900
C         41.57900       -1.37200       52.08200
C         43.00500       -2.76600       52.30800
C         40.76900       -1.44700       50.80600
C         43.03200       -1.80400       49.99600
C         42.16000       -2.73900       52.45100
N         44.41300        2.27700       52.59900
C         45.59100        3.13900       52.57500
C         46.12300        3.31500       53.99600
O         47.31300        3.11700       54.23300
C         45.31400        4.52800       51.92600
C         44.87000        4.36500       50.47200
C         46.55900        5.40700       51.99600
C         44.22100        5.60600       49.86400
N         45.23200        3.65900       54.92800
C         45.59900        3.89800       56.32900
C         46.44800        2.79300       56.94500
O         47.50300        3.06900       57.51300
C         44.36500        4.13300       57.19500
C         44.68700        4.47300       58.61600
C         45.31500        5.68100       58.93700
C         44.36000        3.59200       59.63900
C         45.61500        6.00000       60.25900
C         44.65100        3.90100       60.97000
C         45.28100        5.10500       61.28200
N         45.99100        1.54900       56.81600
C         46.71300        0.40300       57.37100
C         47.99000        0.06100       56.59900
O         48.79200       -0.74600       57.06500
C         45.81200       -0.85300       57.53000
C         45.40200       -1.42000       56.16700
C         44.59500       -0.52500       58.38200
C         44.65300       -2.74000       56.23500
N         48.18200        0.67600       55.43100
C         49.39500        0.46600       54.64300
C         50.37500        1.62700       54.72000
O         51.30500        1.71100       53.92300
C         49.04400        0.16600       53.19100
C         48.60500       -1.25800       52.98800
O         49.41900       -2.17900       53.02000
N         47.31400       -1.45300       52.77100
N         50.17100        2.50700       55.69500
C         51.02200        3.68300       55.88700
C         52.43500        3.36600       56.41200
O         52.98800        2.29000       56.15200
C         50.31300        4.70500       56.78600
C         49.68300        5.96400       56.17800
C         49.15600        5.75400       54.77400
C         48.58300        6.49500       57.07800
N         53.01100        4.31000       57.15500
C         54.40100        4.23200       57.61900
C         55.08200        5.56900       57.36000
O         54.82600        6.22200       56.32500
N         55.93800        5.98800       58.29300
C         56.60000        7.29700       58.20500
C         57.88000        7.27500       57.34800
O         58.46600        8.32700       57.06300
C         56.87200        7.86500       59.60600
O         57.63800        6.96400       60.38900
N         58.29100        6.08000       56.92200
C         59.47300        5.90600       56.06800
C         59.13100        6.09700       54.57900
O         59.97800        5.89100       53.70600
C         60.10300        4.51600       56.31300
C         61.63200        4.53400       56.25900
C         59.11400        3.36400       56.10300
O         62.21000        5.00900       55.25600
O         57.88500        3.57500       56.22800
O         62.25700        4.05200       57.22600
O         59.57600        2.23700       55.82300
N         57.89700        6.52200       54.30700
C         57.32200        6.54100       52.96100
C         57.93600        7.57900       52.02100
O         58.07200        8.74900       52.37500
C         55.81600        6.76900       53.07600
C         55.02800        6.43300       51.82200
S         53.28100        6.84900       51.96200
C         52.74500        5.70600       53.22800
N         58.28800        7.14200       50.81300
C         58.83600        8.03700       49.78400
C         57.75000        8.84300       49.06300
O         56.56900        8.48100       49.09600
C         59.64400        7.24200       48.75700
O         58.79800        6.49300       47.89700
N         58.15900        9.92700       48.40100
C         57.22400       10.76300       47.64800
C         56.60600        9.97600       46.47900
O         55.41000       10.12000       46.18400
C         57.87600       12.10200       47.19400
C         57.06500       12.79200       46.08400
C         58.03500       13.03500       48.38500
N         57.41300        9.13000       45.83800
C         56.91300        8.23700       44.79300
C         55.76800        7.36700       45.32500
O         54.69300        7.31500       44.72700
C         58.05100        7.37600       44.17300
C         57.49300        6.21200       43.35900
C         58.94600        8.23800       43.29400
N         55.99100        6.70900       46.46000
C         54.95500        5.87000       47.05300
C         53.71100        6.67500       47.46900
O         52.58300        6.25400       47.21100
C         55.51200        5.05300       48.22500
C         54.59400        3.91400       48.64400
C         55.10500        3.14700       49.84500
O         56.16400        3.46400       50.40600
N         54.35200        2.12200       50.25200
N         53.92800        7.82600       48.10400
C         52.84000        8.71400       48.49500
C         51.99700        9.12200       47.30100
O         50.75700        9.07900       47.35500
N         52.66500        9.50400       46.21300
C         51.95900        9.85800       44.98600
C         51.20100        8.66700       44.42100
O         50.08000        8.84200       43.94300
C         52.89600       10.46200       43.94200
C         53.48300       11.84100       44.25300
C         54.54600       12.20500       43.22100
C         52.40300       12.91000       44.32800
N         51.78800        7.46700       44.49600
C         51.08400        6.24700       44.08000
C         49.76200        6.06500       44.82400
O         48.74100        5.73000       44.21200
C         51.95700        5.00800       44.24000
C         53.04300        4.92100       43.19600
O         52.95000        5.53300       42.13500
N         54.08500        4.14500       43.49000
N         49.77800        6.31200       46.13300
C         48.55800        6.25300       46.92300
C         47.56400        7.30000       46.43500
O         46.37100        7.02200       46.30200
C         48.84300        6.43400       48.42000
C         49.36300        5.19600       49.10100
C         50.62200        5.18800       49.68600
C         48.59600        4.04100       49.16100
C         51.10700        4.03800       50.32200
C         49.07200        2.89300       49.78900
C         50.32500        2.89200       50.37200
N         48.05800        8.50400       46.16100
C         47.19200        9.58000       45.69400
C         46.52400        9.19600       44.37600
O         45.31100        9.39300       44.19900
C         47.96900       10.89000       45.56000
C         47.20200       12.17100       45.20700
C         45.96100       12.37100       46.06100
C         48.12100       13.36300       45.34700
N         47.31600        8.62800       43.46800
C         46.80100        8.09200       42.20800
C         45.79600        6.98200       42.44200
O         44.73100        6.96300       41.82300
N         46.13200        6.06900       43.35400
C         45.25300        4.95500       43.71100
C         43.86400        5.40100       44.20900
O         42.87000        4.69800       44.01300
C         45.92500        4.07100       44.74300
N         43.79100        6.57000       44.84200
C         42.53800        7.01100       45.43900
C         41.57700        7.57300       44.40300
O         40.35600        7.61600       44.63100
C         42.79700        8.05600       46.51500
O         43.19300        9.28200       45.93300
N         42.12600        8.00600       43.26800
C         41.33700        8.73400       42.27500
C         40.17600        7.93200       41.68700
O         39.06400        8.44600       41.63500
C         42.22100        9.33500       41.18200
C         43.28200       10.33100       41.65400
C         44.14100       10.75900       40.50400
C         42.66300       11.53700       42.32800
N         40.41600        6.67800       41.24500
C         39.28500        5.92400       40.68000
C         38.00400        5.89900       41.55100
O         36.93500        6.28200       41.06700
C         39.87900        4.52800       40.44400
C         41.30600        4.82100       40.16400
C         41.66100        5.89500       41.16400
N         38.09800        5.49000       42.81200
C         36.90400        5.45000       43.65200
C         36.37500        6.84900       43.95000
O         35.16600        7.05600       44.01200
C         37.10100        4.61700       44.97000
C         35.75200        4.33800       45.64600
C         38.06300        5.30400       45.93200
C         34.72000        3.73000       44.72200
N         37.28800        7.80000       44.12800
C         36.90800        9.16800       44.42500
C         35.93600        9.66900       43.36600
O         34.84100       10.15100       43.69600
C         38.12800       10.05800       44.49400
N         36.30400        9.51400       42.09500
C         35.53600       10.15500       41.03400
C         34.44400        9.30800       40.37200
O         33.38000        9.83300       40.03200
C         36.45900       10.89600       40.05800
C         37.15500       12.05400       40.70300
C         38.46000       11.93000       41.17500
C         36.47100       13.25200       40.92300
C         39.09900       12.99300       41.81700
C         37.09300       14.33400       41.57100
C         38.41400       14.19900       42.02000
N         34.66500        8.00600       40.22600
C         33.54800        7.14500       39.85500
C         32.49100        7.17600       40.98300
O         31.28900        7.26900       40.71100
C         33.97400        5.71700       39.51200
O         34.57900        5.11100       40.66300
C         34.94600        5.72000       38.33200
N         32.94600        7.14700       42.23800
C         32.08000        7.35100       43.39800
C         31.25800        8.62300       43.30100
O         30.02800        8.58200       43.40100
N         31.92800        9.75500       43.08800
C         31.22700       11.02700       42.93800
C         30.13600       10.95700       41.87100
O         28.95800       11.19500       42.17000
C         32.19600       12.18600       42.64300
C         31.58300       13.58300       42.40200
C         30.84200       14.10100       43.64100
C         32.64500       14.58000       41.95900
N         30.51300       10.62000       40.63800
C         29.57000       10.73200       39.51800
C         28.52700        9.61400       39.48500
O         27.34100        9.87200       39.23300
C         30.30200       10.88000       38.18600
C         31.04000       12.18600       38.05000
C         32.36400       12.31100       38.47600
C         30.40500       13.30300       37.50000
C         33.03900       13.53000       38.34200
C         31.06900       14.52300       37.35800
C         32.38000       14.64200       37.77100
N         28.94800        8.38200       39.76500
C         27.98200        7.30100       39.81500
C         26.97400        7.52800       40.95500
O         25.77500        7.30300       40.75400
C         28.64700        5.92400       39.90000
O         29.23400        5.70100       41.16800
N         27.44700        7.99300       42.12200
C         26.56900        8.31800       43.25300
C         25.44600        9.24500       42.82100
O         24.26400        8.95000       43.03200
N         25.82000       10.35700       42.18800
C         24.85500       11.31600       41.64500
C         23.91900       10.65900       40.61100
O         22.68300       10.75000       40.74400
C         25.56300       12.56400       41.05900
C         26.18000       13.38500       42.20000
C         24.58700       13.38700       40.21900
C         27.22200       14.38900       41.77600
N         24.50500        9.98500       39.60800
C         23.72800        9.32900       38.54400
C         22.74500        8.29500       39.12500
O         21.55900        8.25400       38.74800
C         24.65200        8.69300       37.51200
N         23.24300        7.49700       40.06800
C         22.44600        6.46900       40.71600
C         21.29000        7.07300       41.52000
O         20.15700        6.57700       41.46900
C         23.32800        5.60300       41.61700
C         22.66000        4.34000       42.09300
C         23.62800        3.39800       42.74000
O         24.43600        3.80100       43.58700
N         23.55500        2.12000       42.36200
N         21.58100        8.14200       42.26000
C         20.55100        8.87700       42.97400
C         19.40100        9.26600       42.06200
O         18.23500        9.09600       42.44100
N         19.72500        9.78300       40.86800
C         18.71000       10.15800       39.86100
C         17.83200        8.98000       39.43200
O         16.60700        9.10900       39.35900
C         19.35300       10.79600       38.63400
C         19.76800       12.22000       38.84800
C         20.65600       12.68300       37.74200
C         20.97400       14.15400       37.90100
N         22.23000       14.54900       37.16800
N         18.44700        7.83400       39.16000
C         17.67000        6.63300       38.84000
C         16.83800        6.14500       40.03900
O         15.68400        5.76800       39.86800
C         18.54600        5.47800       38.28800
C         17.67400        4.39500       37.68400
C         19.49900        5.99200       37.24700
N         17.42000        6.14800       41.23800
C         16.69900        5.71000       42.43900
C         15.48800        6.60700       42.69400
O         14.39000        6.11800       42.94500
C         17.62000        5.66700       43.65300
N         15.68800        7.91800       42.59600
C         14.58600        8.87600       42.67300
C         13.47800        8.58300       41.65200
O         12.28300        8.65700       41.97600
C         15.09600       10.28100       42.51600
N         13.87200        8.23800       40.42700
C         12.91100        7.85200       39.39600
C         12.16300        6.56900       39.77000
O         11.00000        6.39500       39.40900
C         13.59200        7.70500       38.07000
N         12.82700        5.68700       40.51400
C         12.23400        4.43100       40.97100
C         11.14500        4.65500       41.99900
O         10.21500        3.84700       42.12000
N         11.25600        5.75200       42.74800
C         10.22800        6.14000       43.72400
C          8.85900        6.27900       43.04300
O          7.82200        5.96500       43.64300
C         10.61200        7.45500       44.47000
C         11.82700        7.24100       45.39200
C          9.42600        8.03500       45.23400
C         11.55400        6.41000       46.63800
N          8.86200        6.73400       41.78900
C          7.61700        6.87000       41.02300
C          7.03200        5.51600       40.57400
O          5.80700        5.37900       40.48000
C          7.75600        7.85100       39.83900
C          8.65300        9.11600       40.09700
C          7.37900        9.31000       40.15500
C          8.38400        9.85200       41.43000
C          5.93000        9.47300       40.59700
O          7.24300       10.11200       41.80200
O          4.99800        9.23200       39.82800
N          9.45500       10.19600       42.13300
N          5.74000        9.88800       41.84400
N          7.88700        4.52000       40.31800
C          7.39600        3.15700       40.09800
C          6.69400        2.70800       41.36700
O          5.58900        2.16900       41.32800
C          8.51400        2.14800       39.75300
C          9.20500        2.52500       38.43600
C          7.95000        0.71400       39.68500
C         10.44800        1.72100       38.13400
N          7.34800        2.95700       42.49300
C          6.82900        2.61500       43.80800
C          5.49900        3.30000       44.07400
O          4.60000        2.70300       44.66400
C          7.84800        3.05000       44.83900
C          7.78700        2.51400       46.24100
C          7.70500        1.01900       46.17100
C          9.05400        2.96300       46.93900
N          5.37300        4.55100       43.61900
C          4.13200        5.32900       43.79600
C          2.94600        4.76800       42.99600
O          1.82700        4.73600       43.48800
C          4.36400        6.78200       43.45100
N          3.20900        4.31500       41.77400
C          2.15700        3.92300       40.84500
C          1.94300        2.41200       40.77200
O          0.80900        1.95000       40.67400
C          2.46400        4.46300       39.44400
C          2.43000        5.98000       39.31600
C          1.02800        6.46700       38.99700
C          1.05100        7.87900       38.42900
N          1.39000        8.87000       39.48900
N          3.03700        1.65400       40.78900
C          2.98400        0.19600       40.66400
C          3.86000       -0.45600       41.73000
O          4.89600       -1.04300       41.41100
C          3.46300       -0.25200       39.28500
C          2.79300        0.40200       38.10700
C          1.68300       -0.44100       37.58100
C          1.16600        0.17100       36.32100
N          0.01000       -0.59600       35.86300
N          3.44400       -0.36900       43.00400
C          4.31000       -0.81900       44.08900
C          4.74500       -2.27800       43.96500
O          5.81100       -2.64000       44.46000
C          3.46500       -0.58300       45.34100
C          2.08300       -0.41200       44.85400
C          2.16200        0.15200       43.50100
N          3.94400       -3.09900       43.28700
C          4.27800       -4.51400       43.07900
C          5.47400       -4.70400       42.14400
O          5.99900       -5.80300       42.03300
C          3.06300       -5.32100       42.58900
C          2.60600       -5.06800       41.16000
C          1.72800       -3.83300       40.99600
O          1.06100       -3.73800       39.95400
O          1.69600       -2.95400       41.88800
N          5.91100       -3.63800       41.48300
C          7.02000       -3.74500       40.55300
C          8.26300       -3.04400       41.07300
O          9.18100       -2.73000       40.30200
C          6.62200       -3.17700       39.20100
C          5.62800       -4.01200       38.48400
N          5.96600       -5.19800       37.87500
C          4.30100       -3.84700       38.28900
C          4.89000       -5.72600       37.32500
N          3.86500       -4.92700       37.56500
N          8.29300       -2.81200       42.38300
C          9.36100       -2.03200       43.01500
C         10.76800       -2.58700       42.77200
O         11.74200       -1.83400       42.77000
C          9.09900       -1.88700       44.50300
N         10.87000       -3.89500       42.56500
C         12.15700       -4.53700       42.29100
C         12.77500       -4.04000       40.98100
O         14.00300       -3.91700       40.86900
C         12.02600       -6.08400       42.26000
O         11.44600       -6.53000       43.49100
C         13.38400       -6.75800       42.09500
N         11.91800       -3.76400       40.00100
C         12.35400       -3.21300       38.72600
C         13.07300       -1.87800       38.92200
O         14.13800       -1.64900       38.32500
C         11.17300       -3.06100       37.77200
C         10.60100       -4.37600       37.31900
C          9.37000       -4.16200       36.47700
C          8.87000       -5.47100       35.90300
N          8.51400       -6.45400       36.95000
N         12.50400       -1.02100       39.77100
C         13.14300        0.23300       40.16700
C         14.52500        0.02400       40.76200
O         15.48500        0.72000       40.40200
N         14.62600       -0.95100       41.66000
C         15.89800       -1.30500       42.27300
C         16.92500       -1.74700       41.21700
O         18.08800       -1.31100       41.24700
C         15.71100       -2.37800       43.36000
C         14.89600       -1.78600       44.51300
C         17.06300       -2.88400       43.85000
C         14.34700       -2.80900       45.49200
N         16.49000       -2.58900       40.28000
C         17.39200       -3.10500       39.26400
C         17.91200       -1.97000       38.37600
O         19.12100       -1.89300       38.12500
C         16.78200       -4.29300       38.47100
C         16.65600       -5.51900       39.39200
C         17.64700       -4.64900       37.26300
C         15.71700       -6.57400       38.90000
N         17.02700       -1.06800       37.93900
C         17.46000        0.05500       37.10400
C         18.55800        0.83400       37.79900
O         19.55800        1.19100       37.17200
C         16.30900        0.99200       36.77500
C         15.30700        0.42200       35.81500
C         13.94200        0.61600       36.03300
C         15.71500       -0.29800       34.69500
C         12.99600        0.10300       35.14600
C         14.78000       -0.81500       33.80600
C         13.41600       -0.61400       34.02900
N         18.36500        1.08800       39.09600
C         19.33800        1.82900       39.90200
C         20.61800        1.01100       40.13200
O         21.73300        1.55400       40.12700
C         18.72900        2.25900       41.21300
N         20.45200       -0.29600       40.30800
C         21.57900       -1.18400       40.53800
C         22.54700       -1.16200       39.35600
O         23.74800       -1.27800       39.55200
C         21.10200       -2.59400       40.82700
N         22.03700       -0.97600       38.13900
C         22.89600       -0.95700       36.94500
C         23.97900        0.11200       37.00800
O         25.07500       -0.09600       36.50200
C         22.08400       -0.80000       35.66500
C         21.10300       -1.91500       35.40200
S         21.85700       -3.56200       35.35600
C         21.65700       -4.18400       37.04900
N         23.68000        1.24100       37.64600
C         24.66000        2.31700       37.78500
C         25.76200        1.89500       38.76500
O         26.89500        2.37000       38.66800
C         24.01100        3.66800       38.22600
C         25.03300        4.79900       38.20500
C         22.84000        4.02600       37.33300
N         25.42800        0.98100       39.67900
C         26.35400        0.51300       40.71200
C         27.66600       -0.02800       40.13200
O         28.73300        0.14200       40.73700
C         25.68100       -0.54900       41.59500
C         26.48300       -0.98900       42.79800
C         26.58200        0.08100       43.86400
O         25.86600        1.11800       43.77900
O         27.38200       -0.11800       44.80600
N         27.57800       -0.66400       38.96100
C         28.73200       -1.26600       38.28800
C         29.97800       -0.37100       38.28800
O         31.09200       -0.83700       38.55700
C         28.38000       -1.60500       36.83300
O         27.14100       -2.31200       36.80400
C         29.46200       -2.44900       36.17300
N         29.77500        0.91300       38.02100
C         30.87900        1.82200       37.75500
C         31.55400        2.28400       39.02500
O         32.73600        2.62600       39.01400
C         30.41700        2.94400       36.79600
C         29.73600        2.24500       35.66100
C         28.33900        2.15900       35.60400
C         30.48900        1.50900       34.73500
C         27.71400        1.42700       34.60800
C         29.87800        0.78000       33.74000
C         28.49400        0.74200       33.68200
O         27.90100        0.01700       32.68600
N         30.80800        2.24800       40.12200
C         31.39000        2.42000       41.44100
C         32.22700        1.18400       41.81000
O         33.32400        1.31000       42.35600
C         30.30900        2.67100       42.47200
N         31.71500       -0.00400       41.49100
C         32.42600       -1.24800       41.78800
C         33.73300       -1.34200       40.98000
O         34.79600       -1.68200       41.53400
C         31.53200       -2.49800       41.60000
C         30.41200       -2.50400       42.64800
C         32.35300       -3.77500       41.72600
C         29.28100       -3.49400       42.36300
N         33.66500       -1.02000       39.68900
C         34.86000       -1.02400       38.84600
C         35.88600       -0.02200       39.36400
O         37.08200       -0.31700       39.40900
C         34.51400       -0.73700       37.38000
C         33.66800       -1.77600       36.62200
C         33.41700       -1.31100       35.18400
C         34.26400       -3.20400       36.65400
N         35.41100        1.15600       39.76000
C         36.25800        2.15900       40.39400
C         36.88100        1.63500       41.67600
O         38.08100        1.80400       41.91400
N         36.06200        0.98700       42.49600
C         36.52700        0.40600       43.74600
C         37.62100       -0.63300       43.50900
O         38.65700       -0.60800       44.18100
C         35.35100       -0.19400       44.53600
C         35.75400       -0.87200       45.82000
C         36.10300       -0.12900       46.94700
C         35.76600       -2.26100       45.90200
C         36.47100       -0.76200       48.13600
C         36.13200       -2.91300       47.08800
C         36.48600       -2.16000       48.20600
N         37.38900       -1.53100       42.55200
C         38.33200       -2.61200       42.25700
C         39.70100       -2.06500       41.80200
O         40.74300       -2.50200       42.31300
C         37.72600       -3.64900       41.27000
C         38.78000       -4.57900       40.71300
C         36.64900       -4.45900       41.96000
N         39.70000       -1.09100       40.88700
C         40.94300       -0.45700       40.41700
C         41.68900        0.26100       41.54500
O         42.91100        0.10700       41.67400
C         40.70400        0.49500       39.21000
C         40.26200       -0.29700       37.97200
C         41.95400        1.33600       38.89200
C         41.27600       -1.32800       37.45400
N         40.95600        1.03200       42.35200
C         41.52100        1.67800       43.54200
C         42.12400        0.65100       44.48700
O         43.23500        0.84800       44.97800
C         40.47500        2.51400       44.29300
O         40.37800        3.82400       43.77000
N         41.38700       -0.43800       44.72400
C         41.84000       -1.51700       45.57500
C         43.17800       -2.08800       45.08800
O         44.12600       -2.21700       45.88300
C         40.77000       -2.61300       45.66500
C         41.02800       -3.64800       46.75200
C         40.49500       -3.48300       48.03900
C         41.78700       -4.79200       46.48700
C         40.72300       -4.42800       49.03900
C         42.01400       -5.74100       47.49000
C         41.48000       -5.55400       48.76200
N         43.25900       -2.41500       43.79400
C         44.48700       -2.99100       43.22600
C         45.66600       -2.03800       43.31800
O         46.79600       -2.45600       43.60100
C         44.29600       -3.41400       41.77100
C         43.40000       -4.61900       41.48100
C         43.27400       -4.79000       39.96800
C         43.92600       -5.89600       42.13500
N         45.38700       -0.75900       43.08000
C         46.41800        0.27300       43.10000
C         46.94100        0.58900       44.50000
O         48.12600        0.88000       44.66500
C         45.92500        1.53900       42.41100
C         45.90300        1.48200       40.89300
C         45.25100        2.74800       40.33300
C         47.31900        1.30000       40.34400
N         46.05800        0.53400       45.49600
C         46.45600        0.71100       46.89800
C         47.38800       -0.40500       47.33600
O         48.42600       -0.13300       47.92700
C         45.23900        0.80700       47.85600
C         45.68000        0.71700       49.31700
C         44.49100        2.10500       47.62100
N         47.02200       -1.65000       47.03300
C         47.84700       -2.80900       47.38100
C         49.18300       -2.78900       46.65600
O         50.14900       -3.37700       47.11900
C         47.12700       -4.12400       47.07200
C         45.89800       -4.54900       47.87500
C         45.54400       -5.97100       47.50900
C         46.10700       -4.42700       49.37200
N         49.23900       -2.10100       45.52500
C         50.44600       -2.08600       44.71400
C         51.23400       -0.77400       44.79700
O         52.27500       -0.62500       44.16500
C         50.09600       -2.45700       43.26500
C         51.32000       -2.75000       42.41700
C         49.94500       -3.96600       43.06800
O         51.68800       -1.95100       41.54900
O         50.76600       -4.60200       42.40600
N         51.96400       -3.90000       42.66500
N         48.90200       -4.54200       43.65300
N         50.74600        0.16700       45.59800
C         51.39100        1.47400       45.73600
C         52.82100        1.36300       46.26800
O         53.70000        2.12900       45.85600
C         50.55900        2.38800       46.62200
O         53.12700        0.50900       47.11200
N         60.50300       18.33100       41.76100
C         59.48400       17.25200       41.59800
C         59.67300       16.48700       40.29900
O         59.90300       15.27800       40.31200
C         58.05700       17.81700       41.64500
C         56.96500       16.81800       41.22700
S         56.70900       15.47000       42.41400
C         55.15800       15.97100       43.15800
N         59.54700       17.19500       39.18000
C         59.68700       16.58900       37.86500
C         61.09100       16.02200       37.70400
O         61.26700       14.92700       37.16600
C         59.38100       17.60800       36.76800
C         58.82600       17.01000       35.49700
S         57.46800       15.85100       35.76000
C         58.30000       14.29600       35.41500
N         62.07600       16.76500       38.20300
C         63.45700       16.30900       38.24300
C         63.62300       15.07200       39.14600
O         64.39300       14.15800       38.82700
C         64.36500       17.44600       38.71100
C         65.81500       17.22800       38.32700
O         66.51900       16.44400       39.00800
O         66.25100       17.85200       37.33500
N         62.89600       15.05000       40.26500
C         62.92000       13.92000       41.19800
C         62.33800       12.64100       40.58000
O         62.94600       11.57600       40.68400
C         62.19400       14.29200       42.49800
C         61.76700       13.12600       43.37200
C         62.68800       12.45500       44.17500
C         60.43000       12.70900       43.41100
C         62.29400       11.38800       44.99200
C         60.02600       11.64200       44.21800
C         60.96300       10.98800       45.00500
O         60.56600        9.93800       45.80600
N         61.17100       12.75400       39.93800
C         60.52200       11.61200       39.28400
C         61.40400       11.04900       38.17500
O         61.57500        9.83200       38.06200
C         59.14500       11.99200       38.73500
C         58.06200       12.36200       39.74900
C         56.81000       12.82500       39.02300
C         57.75900       11.20200       40.68600
N         61.97200       11.94600       37.37300
C         62.90700       11.56800       36.32000
C         64.06800       10.74500       36.89000
O         64.25000        9.58900       36.50400
C         63.39600       12.81900       35.52500
C         62.28300       13.31700       34.59200
C         64.66900       12.51600       34.73700
C         62.33500       14.80500       34.28100
N         64.80600       11.32800       37.83900
C         66.04800       10.73400       38.36900
C         65.85600        9.54400       39.32700
O         66.81500        8.84400       39.63400
C         66.96600       11.80800       39.04100
O         66.22300       12.53800       40.02600
C         67.53700       12.78400       38.00300
N         64.63000        9.31800       39.79400
C         64.33600        8.21000       40.72200
C         63.44800        7.13800       40.09700
O         62.86800        6.31100       40.81300
C         63.66400        8.72700       42.00100
C         64.46200        9.77100       42.76100
C         65.81100        9.26900       43.20200
O         65.91300        8.25200       43.88800
N         66.86100        9.98100       42.81200
N         63.35100        7.16100       38.76500
C         62.40600        6.32100       38.00600
C         60.98800        6.27400       38.60200
O         60.43900        5.19600       38.87800
C         62.97400        4.91600       37.76000
C         64.00700        4.90400       36.65800
O         65.15800        5.28500       36.86900
N         63.60000        4.47700       35.46600
N         60.41300        7.45600       38.80600
C         59.05800        7.56700       39.32200
C         58.01700        7.61000       38.21800
O         56.95400        8.17700       38.40800
N         58.32400        7.01400       37.06600
C         57.38200        6.92600       35.95400
C         56.10700        6.18400       36.30700
O         55.04600        6.44600       35.74000
N         56.22700        5.25400       37.25200
C         55.10300        4.52900       37.84900
C         53.90600        5.45600       38.14400
O         52.76100        5.07800       37.89200
C         55.61200        3.79300       39.10800
C         54.60000        2.95600       39.87300
C         54.54000        3.11500       39.97200
S         55.39100        1.72200       40.93100
S         53.63000        1.78600       39.16000
C         56.67100        2.65700       41.78000
C         54.73000        0.40200       39.38900
N         54.17700        6.66700       38.64300
C         53.12100        7.61600       39.02800
C         52.23200        7.93200       37.82300
O         51.00600        7.97600       37.93700
C         53.66900        8.91900       39.72600
C         54.58800        8.57000       40.90000
C         52.55100        9.88700       40.05600
C         54.36100        9.85400       38.73700
C         54.44800        8.56400       40.99000
N         52.84600        8.10700       36.65800
C         52.08000        8.40800       35.45000
C         51.27100        7.20800       34.95700
O         50.18200        7.37600       34.38700
C         52.98500        8.97000       34.35100
C         53.66100       10.24700       34.74300
C         55.03000       10.27500       35.02100
C         52.92400       11.41800       34.88400
C         55.65600       11.45900       35.40900
C         53.53800       12.60300       35.27300
C         54.90400       12.62600       35.53700
N         51.80000        6.00400       35.18900
C         51.10000        4.77500       34.83200
C         49.88100        4.57300       35.74400
O         48.81100        4.14000       35.28800
C         52.04300        3.59000       34.89700
N         50.04900        4.90600       37.02500
C         48.95300        4.85900       37.98800
C         47.88800        5.85900       37.55000
O         46.70600        5.52700       37.46800
C         49.43900        5.14900       39.43600
C         48.26300        5.26700       40.39800
C         50.39500        4.06100       39.90400
N         48.31800        7.07600       37.23200
C         47.41400        8.08700       36.71600
C         46.73000        7.61500       35.43100
O         45.55700        7.92700       35.19300
C         48.16300        9.39900       36.48300
C         47.34600       10.65900       36.18100
C         48.48600       10.23600       37.71700
C         46.52100       11.07800       37.39300
C         49.30600       11.44200       37.31100
C         48.25800       11.79000       35.73300
C         47.21100       10.66300       38.41800
N         47.46200        6.86000       34.61100
C         46.92500        6.32800       33.36200
C         45.73500        5.41600       33.65300
O         44.68000        5.52000       33.01800
C         48.00300        5.57700       32.61300
N         45.91400        4.53400       34.63800
C         44.86400        3.61300       35.04200
C         43.66900        4.37300       35.57400
O         42.53000        4.05400       35.20900
C         45.37500        2.61700       36.06400
C         46.31600        1.61000       35.46600
S         47.05300        0.50800       36.69400
C         45.56800       -0.21300       37.42900
N         43.93100        5.38800       36.40500
C         42.86600        6.23300       36.94300
C         42.06300        6.87100       35.80400
O         40.83100        6.80100       35.78500
C         43.42900        7.29700       37.88400
N         42.77100        7.43900       34.83600
C         42.14100        8.14500       33.73300
C         41.24700        7.23200       32.89700
O         40.07600        7.54800       32.65700
C         43.19800        8.86200       32.86100
O         44.29100        7.97700       32.60200
O         43.95000        9.74900       33.70000
C         43.71200       10.10100       33.54600
C         42.56400        9.65700       31.72300
N         41.79100        6.10200       32.46200
C         41.01100        5.12700       31.70900
C         39.72300        4.74400       32.45700
O         38.64200        4.71600       31.86000
C         41.85000        3.89200       31.42200
N         39.83900        4.47700       33.76000
C         38.71100        4.03900       34.57100
C         37.69700        5.14500       34.78600
O         36.50100        4.93600       34.55000
C         39.17400        3.52600       35.95500
O         40.20900        2.55800       35.78100
C         38.02500        2.88100       36.72100
N         38.17600        6.30800       35.23900
C         37.29800        7.40500       35.66900
C         36.40200        7.92800       34.54800
O         35.16300        7.90900       34.68100
C         38.08100        8.56000       36.33500
C         38.60300        8.11500       37.71200
C         37.21200        9.82500       36.45900
C         39.80200        8.90300       38.20000
N         37.00700        8.35300       33.44000
C         36.23700        9.02200       32.40100
C         35.28100        8.10100       31.63500
O         34.14800        8.48700       31.33900
C         37.14900        9.85700       31.49800
C         37.80200       10.98800       32.22400
C         39.10200       10.86500       32.69700
C         37.10000       12.15500       32.49300
C         39.70500       11.89800       33.41100
C         37.69500       13.20000       33.20000
C         38.99700       13.06800       33.66300
N         35.71600        6.87800       31.35200
C         34.82600        5.89700       30.74700
C         33.70000        5.54900       31.71600
O         32.54100        5.42000       31.30200
C         35.59200        4.64200       30.33100
O         36.16300        4.00900       31.45700
N         34.04900        5.41700       32.99800
C         33.07700        5.16100       34.05400
C         32.03100        6.25500       34.20600
O         30.84300        5.97400       34.37800
N         32.46700        7.51000       34.14700
C         31.53600        8.63500       34.17000
C         30.58400        8.56900       32.96700
O         29.36400        8.73000       33.13200
C         32.26700        9.98900       34.21000
C         32.99700       10.15700       35.55300
C         31.29400       11.14200       33.97900
C         33.96900       11.34900       35.57600
N         31.13300        8.30200       31.77600
C         30.32600        8.17000       30.55700
C         29.21600        7.14400       30.72000
O         28.04600        7.40000       30.39500
N         29.58500        5.98300       31.25000
C         28.62600        4.91000       31.47700
C         27.65700        5.24700       32.59000
O         26.45600        5.00600       32.44900
C         29.33000        3.58800       31.77400
O         29.76400        2.98000       30.57700
N         28.16700        5.80300       33.68900
C         27.30400        6.14200       34.82200
C         26.20600        7.09500       34.34200
O         25.02400        6.88100       34.64400
C         28.11000        6.75200       35.97100
N         26.60100        8.11000       33.56100
C         25.65900        9.08700       33.04700
C         24.70600        8.47900       32.01500
O         23.48600        8.68100       32.10200
C         26.39100       10.28900       32.47500
C         26.86500       11.22700       33.53900
C         27.66300       12.34700       32.95000
C         27.77200       13.47300       33.95400
N         26.44900       14.15500       34.10100
N         25.25100        7.72600       31.06100
C         24.44100        7.12900       30.01300
C         23.46500        6.09300       30.54600
O         22.26700        6.12800       30.22100
N         23.97900        5.15900       31.35100
C         23.15400        4.13200       31.98700
C         22.12800        4.80100       32.90900
O         20.96400        4.39400       32.95500
C         24.03000        3.10100       32.78000
C         23.17700        2.16000       33.67500
C         24.90200        2.30400       31.82000
N         22.57300        5.83200       33.62900
C         21.70700        6.59500       34.52100
C         20.54400        7.22500       33.78100
O         19.38500        7.04600       34.17000
N         20.85100        7.94200       32.70400
C         19.82300        8.58800       31.90300
C         18.81000        7.59600       31.34500
O         17.61000        7.83800       31.41400
C         20.43300        9.38700       30.75900
C         19.37500        9.99800       29.87600
S         20.07300       11.03100       28.60400
C         20.39500       12.55900       29.51900
N         19.29700        6.49500       30.78300
C         18.41800        5.49600       30.19100
C         17.58700        4.84200       31.29500
O         16.38300        4.61000       31.12400
C         19.21100        4.45600       29.38300
O         20.07500        5.13600       28.46000
C         18.27300        3.53400       28.60900
N         18.22900        4.58800       32.43500
C         17.55000        4.09600       33.61700
C         16.34700        4.93500       34.01400
O         15.27500        4.38800       34.30500
N         16.52100        6.25600       34.03600
C         15.43200        7.17900       34.35900
C         14.24700        7.02600       33.39100
O         13.08900        6.96500       33.81900
C         15.93100        8.62400       34.35100
C         16.99300        8.91600       35.39200
C         17.54100       10.33100       35.29500
O         16.74800       11.29500       35.40000
O         18.77200       10.47900       35.11900
N         14.55100        6.95600       32.09300
C         13.54600        6.76700       31.04800
C         12.86700        5.41200       31.21000
O         11.63800        5.30000       31.07500
C         14.18300        6.86800       29.68300
N         13.66500        4.38300       31.50300
C         13.14300        3.03300       31.68000
C         12.21200        2.98000       32.88600
O         11.12900        2.39300       32.80800
C         14.28300        2.02800       31.80500
N         12.62300        3.61300       33.98800
C         11.79700        3.69800       35.19800
C         10.44600        4.35900       34.90300
O          9.39500        3.86600       35.31800
C         12.53200        4.45000       36.29700
N         10.48900        5.47200       34.16400
C          9.28700        6.21900       33.76600
C          8.32100        5.33900       32.97000
O          7.12900        5.29000       33.28200
C          9.66500        7.46400       32.98700
N          8.84400        4.62500       31.97100
C          8.05800        3.64700       31.22800
C          7.47400        2.57000       32.13600
O          6.31700        2.19400       31.96900
C          8.89100        2.99700       30.12600
C          8.19500        1.89100       29.31600
C          6.96900        2.41400       28.56700
C          9.15600        1.21500       28.35900
N          8.26600        2.08900       33.09600
C          7.84400        1.00500       33.98800
C          6.65200        1.37900       34.85900
O          5.87800        0.50500       35.24300
C          9.01000        0.50300       34.86400
O         10.08900        0.10400       34.02000
C          8.60100       -0.68800       35.71700
N          6.48600        2.66800       35.15000
C          5.37200        3.10800       36.00400
C          4.01800        2.86500       35.34800
O          2.99700        2.82000       36.04000
C          5.45500        4.59500       36.42500
O          5.12500        5.41900       35.30900
C          6.84900        4.96400       36.92500
N          4.00000        2.69900       34.02900
C          2.74300        2.39600       33.35600
C          2.74700        1.08700       32.56200
O          1.70500        0.45500       32.41400
C          2.28600        3.56000       32.48300
O          2.92000        3.52500       31.22500
N          3.90100        0.68200       32.04400
C          3.99400       -0.58900       31.30800
C          5.14900       -1.45500       31.80600
O          6.17100       -1.56500       31.12100
C          4.13700       -0.34000       29.81000
C          2.98900        0.42700       29.19100
C          3.36500        1.00400       27.86000
O          3.50100        0.28100       26.88200
N          3.54900        2.31700       27.81200
N          4.98900       -2.07200       33.00100
C          6.07000       -2.84200       33.61900
C          6.43800       -4.10900       32.85800
O          7.52800       -4.64100       33.04500
C          5.51100       -3.18700       35.00200
C          4.05800       -3.12500       34.84800
C          3.77900       -2.06700       33.84300
N          5.54700       -4.57500       31.99400
C          5.79800       -5.79700       31.23800
C          6.91900       -5.64800       30.19400
O          7.38900       -6.63800       29.64300
C          4.50600       -6.31400       30.59300
C          3.97500       -5.47900       29.42000
C          3.17600       -4.24300       29.84300
O          2.80600       -3.44800       28.94800
O          2.91300       -4.06100       31.05500
N          7.34400       -4.41400       29.93900
C          8.37700       -4.13600       28.95200
C          9.75600       -4.00000       29.59500
O         10.71000       -3.51000       28.97200
C          8.00400       -2.88300       28.15900
C          6.80000       -3.11500       27.28300
C          6.26100       -1.85000       26.69700
C          5.11800       -2.17800       25.75100
N          4.72800       -0.98600       24.95200
N          9.84700       -4.46900       30.83800
C         11.04300       -4.33700       31.66500
C         12.31900       -4.92300       31.04900
O         13.34400       -4.24200       30.99800
C         10.77600       -4.95400       33.02800
C         11.97900       -5.04300       33.90200
C         12.53900       -3.89600       34.45000
C         12.54600       -6.28300       34.19800
C         13.65000       -3.97900       35.27600
C         13.66100       -6.37900       35.01800
C         14.21400       -5.22600       35.56100
N         12.25200       -6.17600       30.59200
C         13.40600       -6.86300       30.00200
C         14.02300       -6.11000       28.83800
O         15.23600       -5.92800       28.77100
N         13.17500       -5.65400       27.92100
C         13.61900       -4.89500       26.76100
C         14.21300       -3.55500       27.18400
O         15.24500       -3.14800       26.65300
C         12.48000       -4.71100       25.74900
C         11.70800       -5.99300       25.37500
C         12.10800       -5.97200       24.97800
C         10.41800       -6.20600       26.19600
C         13.05300       -6.27500       23.83400
O          9.31800       -5.90100       25.72500
O         14.22000       -6.60600       24.03600
N         10.55300       -6.73800       27.41500
N         12.54300       -6.17800       22.62000
N         13.57700       -2.89100       28.15200
C         14.07700       -1.61600       28.71000
C         15.44700       -1.79200       29.35200
O         16.30900       -0.91900       29.25200
C         13.08700       -1.03800       29.72400
N         15.63400       -2.93500       30.00800
C         16.89800       -3.27300       30.64400
C         18.02600       -3.39200       29.60400
O         19.13500       -2.90600       29.82700
C         16.75400       -4.55700       31.46700
C         17.78200       -4.83700       32.55500
C         18.03400       -3.60500       33.40100
C         17.31600       -6.01100       33.41600
N         17.73900       -4.01700       28.46500
C         18.74600       -4.19400       27.42500
C         19.21200       -2.82400       26.94100
O         20.41900       -2.57200       26.81600
C         18.23000       -5.06900       26.25000
C         18.05600       -6.52300       26.71100
C         19.16900       -4.96300       25.03600
C         17.14300       -7.32800       25.83800
N         18.25600       -1.93700       26.69600
C         18.57400       -0.59000       26.26300
C         19.45300        0.11800       27.28200
O         20.40400        0.80200       26.89900
C         17.30300        0.22000       25.99700
C         16.57200       -0.05600       24.68500
C         15.17700        0.54000       24.72600
C         17.37800        0.50100       23.50900
N         19.15500       -0.05800       28.57200
C         19.95900        0.54100       29.64100
C         21.40200        0.01200       29.70400
O         22.30800        0.74200       30.11500
C         19.29000        0.35100       30.99400
C         19.83200        1.28600       32.06600
C         19.44400        0.87500       33.46300
O         18.80600       -0.15100       33.66900
N         19.84000        1.67200       34.43800
N         21.61400       -1.24200       29.30200
C         22.95500       -1.82800       29.29500
C         23.87500       -1.27000       28.20200
O         25.08800       -1.20200       28.40600
C         22.89500       -3.35600       29.20700
C         22.26900       -4.08700       30.41700
C         22.38100       -5.59400       30.26300
C         22.82900       -3.62500       31.79300
N         23.31300       -0.86200       27.05700
C         24.12400       -0.33800       25.93800
C         25.16700        0.73500       26.33100
O         26.35500        0.55400       26.04400
C         23.23600        0.12200       24.77700
C         22.78700       -0.89500       23.71400
C         22.95700       -2.35100       24.12500
C         21.33900       -0.61900       23.30200
N         24.74800        1.83000       27.01200
C         25.75500        2.81600       27.44100
C         26.68000        2.29200       28.55300
O         27.62600        2.97800       28.96000
C         24.91800        3.98900       27.96800
C         23.51800        3.69000       27.61700
C         23.39600        2.22400       27.43700
N         26.40600        1.08000       29.03100
C         27.18400        0.48800       30.10300
C         28.50900       -0.13100       29.70100
O         29.33900       -0.40800       30.56800
N         28.71500       -0.35200       28.40000
C         29.93200       -1.01500       27.90300
C         31.17900       -0.12300       27.99100
O         32.29000       -0.62500       28.19200
C         29.78100       -1.51000       26.44800
O         29.41600       -0.40300       25.61300
C         28.72600       -2.60500       26.33700
N         30.99300        1.18900       27.84700
C         32.10600        2.15200       27.90300
C         33.01400        2.00400       29.13700
O         34.24500        1.94700       29.01700
C         31.57400        3.58600       27.82300
C         31.30100        4.08200       26.40900
C         29.99000        3.58100       25.82400
O         29.38200        2.61800       26.32100
N         29.55100        4.22600       24.74700
N         32.39500        1.94000       30.31400
C         33.12200        1.83600       31.56700
C         33.86300        0.52300       31.67500
O         34.91800        0.45300       32.32100
N         33.31000       -0.52100       31.05000
C         33.94900       -1.83800       31.04700
C         35.20500       -1.82300       30.18600
O         36.22200       -2.38800       30.58500
C         32.97700       -2.93500       30.60300
C         31.84100       -3.30100       31.57600
C         30.77500       -4.17600       30.90300
C         32.36700       -3.98800       32.83900
N         35.14200       -1.16300       29.02400
C         36.32600       -0.97500       28.17900
C         37.43900       -0.25700       28.93200
O         38.59800       -0.68900       28.90000
C         36.00500       -0.16600       26.92500
C         34.99600       -0.79400       25.99500
C         34.09500        0.00000       25.30800
C         34.94200       -2.17800       25.80000
C         33.17100       -0.55300       24.44800
C         34.01300       -2.74200       24.94100
C         33.12900       -1.92000       24.27200
O         32.19400       -2.45300       23.42200
N         37.08000        0.83900       29.60300
C         38.02500        1.61500       30.39800
C         38.67800        0.78300       31.47700
O         39.89800        0.83800       31.64700
N         37.86000        0.00900       32.19400
C         38.34300       -0.91800       33.21400
C         39.34800       -1.91900       32.61800
O         40.42000       -2.13500       33.19100
C         37.16500       -1.64200       33.88300
C         37.58000       -2.66500       34.90900
C         37.85100       -2.28200       36.21700
C         37.70100       -4.01500       34.56300
C         38.23600       -3.22500       37.16700
C         38.09200       -4.97600       35.50800
C         38.35800       -4.58200       36.80900
N         39.00000       -2.50800       31.46900
C         39.86800       -3.48200       30.79800
C         41.21700       -2.84200       30.43400
O         42.26800       -3.42500       30.69800
C         39.17600       -4.14700       29.57200
C         40.17500       -4.90800       28.71600
C         38.06700       -5.07800       30.02800
N         41.18700       -1.63700       29.86600
C         42.41900       -0.89900       29.58000
C         43.23600       -0.66000       30.85900
O         44.44900       -0.88900       30.87100
C         42.14700        0.42800       28.81700
C         41.66600        0.13800       27.39400
C         43.38500        1.32200       28.79300
C         42.61900       -0.70800       26.57700
N         42.56700       -0.23900       31.93400
C         43.23500       -0.01300       33.21500
C         43.95500       -1.27500       33.69100
O         45.11700       -1.21300       34.11500
C         42.25500        0.46500       34.25800
N         43.26900       -2.41600       33.59000
C         43.80600       -3.69200       34.03900
C         44.97400       -4.15000       33.16300
O         45.92500       -4.77800       33.64200
C         42.70200       -4.75400       34.07300
C         43.11400       -6.02100       34.74700
C         43.15100       -6.10200       36.13900
C         43.48600       -7.13500       33.99700
C         43.55300       -7.28700       36.77600
C         43.89600       -8.33000       34.62700
C         43.92700       -8.40200       36.01300
N         44.89600       -3.82000       31.87800
C         45.96200       -4.13800       30.93400
C         47.23300       -3.34000       31.23000
O         48.34000       -3.87600       31.13100
C         45.49800       -3.90800       29.48900
C         46.34200       -4.54400       28.37200
C         44.53300       -4.94800       28.91700
C         46.13100       -6.06300       28.31700
C         43.72400       -4.32000       27.81200
C         46.04300       -3.90600       27.02600
C         45.25100       -6.20700       28.42600
N         47.06900       -2.06200       31.58300
C         48.18800       -1.27400       32.10000
C         48.71400       -1.92800       33.38200
O         49.92400       -2.12800       33.52900
C         47.80900        0.19100       32.37100
C         47.39400        0.88900       31.08300
C         48.98300        0.94000       32.99300
C         46.65900        2.22100       31.31300
N         47.80000       -2.28700       34.28600
C         48.16500       -2.86800       35.58100
C         49.11300       -4.05800       35.45700
O         50.14400       -4.10900       36.13300
C         46.92600       -3.25900       36.38800
C         47.24300       -3.77600       37.75500
C         47.72600       -2.92400       38.75400
C         47.07800       -5.13000       38.04900
C         48.03600       -3.41600       40.03100
C         47.37600       -5.63700       39.32500
C         47.85600       -4.77900       40.31800
N         48.77000       -5.00400       34.58900
C         49.60100       -6.19200       34.40500
C         50.88000       -5.92300       33.59800
O         51.74300       -6.78800       33.50000
C         48.81200       -7.38200       33.80400
C         48.44100       -7.10900       32.34500
C         47.58900       -7.70500       34.66000
C         47.75200       -8.27300       31.64800
N         51.01300       -4.73000       33.03800
C         52.24300       -4.35700       32.34200
C         53.11500       -3.37800       33.14000
O         54.01700       -2.75800       32.59400
C         51.92300       -3.78600       30.95200
C         51.60100       -4.86600       29.92900
O         52.49300       -5.55400       29.43400
N         50.32300       -5.00700       29.59500
N         52.84200       -3.24400       34.43100
C         53.59500       -2.33900       35.29900
C         55.03300       -2.80500       35.59600
O         55.65100       -3.50000       34.78900
C         52.82200       -2.11200       36.60200
C         52.09200       -0.78700       36.84200
C         51.54700       -0.16200       35.56500
C         50.98400       -0.97000       37.87000
N         55.55100       -2.42500       36.76500
C         56.95500       -2.66200       37.14400
C         57.52900       -1.38200       37.73800
O         57.22200       -0.27800       37.26500
N         58.35300       -1.51900       38.77900
C         58.90100       -0.35000       39.50200
C         60.18500        0.21700       38.86200
O         60.70900        1.25400       39.29300
C         59.11800       -0.67400       40.99200
O         60.01800       -1.75500       41.15300
N         60.67500       -0.46200       37.82700
C         61.84800       -0.01000       37.08400
C         61.46700        0.98800       35.97800
O         62.32200        1.40900       35.20000
C         62.58200       -1.22600       36.48800
C         64.10200       -1.06300       36.49500
C         61.67600       -2.09800       35.61000
O         64.61700       -0.04900       35.97300
O         60.44000       -2.10200       35.81000
O         64.78600       -1.96600       37.01900
O         62.21200       -2.79100       34.71900
N         60.18900        1.37200       35.93700
C         59.59600        2.15400       34.83600
C         60.10300        3.59700       34.71900
O         60.13000        4.34100       35.70200
C         58.07700        2.15300       34.98900
C         57.30700        2.63400       33.78200
S         55.54000        2.76900       34.11900
C         55.10600        1.04700       34.42400
N         60.48900        3.98500       33.50700
C         60.95200        5.35100       33.24100
C         59.79400        6.32900       33.05600
O         58.65900        5.91800       32.79700
C         61.85800        5.38800       32.01100
O         61.12100        5.18600       30.82200
N         60.09200        7.62100       33.18200
C         59.08700        8.66300       33.00200
C         58.50300        8.65800       31.58600
O         57.29500        8.82000       31.41800
C         59.60900       10.06500       33.42700
C         58.69700       11.20000       32.91000
C         59.72800       10.12900       34.94900
N         59.35400        8.44700       30.58300
C         58.89600        8.28800       29.19400
C         57.83900        7.18300       29.07600
O         56.76800        7.41000       28.50700
C         60.07800        8.05200       28.20400
C         59.58900        7.57100       26.84100
C         60.88200        9.32500       28.03900
N         58.13300        6.00400       29.62900
C         57.18900        4.89000       29.59600
C         55.89300        5.19200       30.36800
O         54.79500        4.89900       29.89200
C         57.83700        3.59900       30.10200
C         56.98500        2.35800       29.80100
C         57.61400        1.05000       30.25500
O         58.66200        1.03600       30.92200
N         56.96800       -0.06700       29.89500
N         56.03000        5.77800       31.55100
C         54.87900        6.20300       32.33700
C         53.97100        7.15400       31.58100
O         52.75100        6.97000       31.55700
N         54.57200        8.16800       30.95700
C         53.84200        9.08800       30.08400
C         53.21100        8.39300       28.87200
O         52.11300        8.75800       28.47600
C         54.72900       10.24400       29.62600
C         55.18400       11.24900       30.68100
C         56.15500       12.24200       30.05400
C         53.99900       11.96000       31.33000
N         53.89100        7.40300       28.29200
C         53.30200        6.61500       27.21300
C         52.01100        5.92000       27.63700
O         51.02300        5.92400       26.88000
C         54.28500        5.59400       26.66100
C         55.31800        6.21600       25.74800
O         55.12500        7.31300       25.21300
N         56.43100        5.51000       25.56200
N         52.01500        5.34000       28.84000
C         50.80800        4.74800       29.40400
C         49.72000        5.80500       29.58900
O         48.54800        5.56000       29.29300
C         51.10900        4.06700       30.74100
C         51.73800        2.71000       30.61000
C         52.99200        2.45800       31.15200
C         51.07600        1.68300       29.94500
C         53.58200        1.19800       31.03500
C         51.64900        0.43300       29.81600
C         52.91200        0.18200       30.36800
N         50.11300        6.98000       30.07700
C         49.15900        8.06100       30.31700
C         48.48900        8.47900       29.01400
O         47.26700        8.68100       28.97100
C         49.83300        9.25300       30.99900
C         48.90300       10.38000       31.45600
C         47.70800        9.83900       32.23700
C         49.66900       11.39000       32.29400
N         49.29200        8.59200       27.95500
C         48.78500        8.90900       26.61800
C         47.86100        7.80500       26.13700
O         46.75900        8.07900       25.64700
N         48.31100        6.55900       26.31700
C         47.55200        5.36700       25.93800
C         46.15800        5.31900       26.55800
O         45.22200        4.79800       25.94700
C         48.32100        4.11700       26.30800
N         46.01600        5.85200       27.77100
C         44.73800        5.79400       28.46500
C         43.71900        6.79800       27.91500
O         42.50600        6.62800       28.10800
C         44.93500        6.02900       29.95300
O         45.15000        7.40300       30.22100
N         44.19900        7.83500       27.22900
C         43.32600        8.94400       26.84000
C         42.21700        8.57100       25.85500
O         41.07000        8.95500       26.07300
C         44.13100       10.14400       26.33700
C         45.09100       10.77700       27.35100
C         45.79700       11.93900       26.68900
C         44.38500       11.22500       28.63900
N         42.54100        7.82000       24.77500
C         41.48200        7.47300       23.82300
C         40.23700        6.82400       24.46900
O         39.12900        7.33700       24.29700
C         42.19200        6.53800       22.84200
C         43.58800        6.99700       22.88500
C         43.83400        7.26700       24.33500
N         40.40000        5.74200       25.22700
C         39.24200        5.14100       25.87800
C         38.60700        6.06800       26.92800
O         37.37800        6.12400       27.05100
C         39.52800        3.72800       26.45500
C         38.21800        2.99800       26.76900
C         40.41700        3.79700       27.69000
C         37.17700        3.04200       25.64900
N         39.42900        6.81300       27.66200
C         38.90300        7.71500       28.68400
C         37.85700        8.65200       28.08200
O         36.71800        8.71700       28.54900
C         40.02900        8.51000       29.33000
N         38.23800        9.33900       27.00700
C         37.41400       10.41300       26.46800
C         36.41100       10.01400       25.39300
O         35.29500       10.53700       25.39900
C         38.26000       11.63900       26.13800
C         38.86300       12.24900       27.36400
C         40.16700       11.95900       27.72900
C         38.08600       13.04200       28.22100
C         40.71000       12.49400       28.90700
C         38.62500       13.57800       29.40300
C         39.93300       13.30300       29.74500
N         36.75500        9.07000       24.51500
C         35.71500        8.48500       23.66600
C         34.69100        7.77300       24.56700
O         33.48100        7.81700       24.31000
C         36.25200        7.52900       22.58400
O         36.91500        6.43200       23.21200
C         37.21200        8.25200       21.63700
N         35.16800        7.15900       25.64500
C         34.27600        6.52900       26.61000
C         33.31300        7.50700       27.25800
O         32.09800        7.26600       27.27800
N         33.85100        8.60400       27.78700
C         33.02700        9.63000       28.40200
C         31.93300       10.15000       27.45500
O         30.73800       10.10900       27.79500
C         33.89100       10.79200       28.89300
C         33.17900       12.04600       29.39900
C         32.42200       11.70000       30.64800
C         34.17200       13.15600       29.65500
N         32.33300       10.63700       26.27800
C         31.38200       11.27700       25.36200
C         30.46300       10.28100       24.65200
O         29.26600       10.56400       24.50100
C         32.09100       12.21000       24.38000
C         32.70100       13.39700       25.04500
C         34.00600       13.34900       25.54300
C         31.95900       14.56500       25.22200
C         34.56300       14.46500       26.18200
C         32.50200       15.68100       25.86800
C         33.80000       15.63700       26.33800
N         30.98100        9.12000       24.24100
C         30.11000        8.16400       23.56200
C         29.09900        7.59600       24.55300
O         27.94600        7.36900       24.20000
C         30.87800        7.06400       22.82000
O         31.52800        6.19000       23.71000
N         29.53700        7.39200       25.79600
C         28.66100        6.91600       26.87200
C         27.44900        7.82300       27.04100
O         26.30600        7.33900       27.02600
N         27.70500        9.13200       27.18300
C         26.65600       10.14800       27.26300
C         25.77500       10.17000       26.00600
O         24.54600       10.14300       26.11600
C         27.24700       11.55800       27.52800
C         27.76700       11.64200       28.96900
C         26.20900       12.65500       27.26100
C         28.78100       12.73200       29.21000
N         26.40000       10.20800       24.82600
C         25.66600       10.23700       23.57100
C         24.79000        8.99100       23.42700
O         23.60900        9.07900       23.08100
C         26.62100       10.36900       22.39500
N         25.36600        7.83600       23.72200
C         24.66600        6.57100       23.56900
C         23.47700        6.49800       24.51000
O         22.41300        5.99300       24.13800
C         25.61500        5.39200       23.82700
C         25.06600        4.06000       23.37600
C         26.11000        2.99300       23.41100
O         26.92100        2.94600       24.33800
N         26.11200        2.12000       22.40000
N         23.67100        7.00100       25.72700
C         22.59300        7.09500       26.69400
C         21.37800        7.84200       26.15500
O         20.23100        7.40000       26.33500
N         21.62800        8.97000       25.49200
C         20.56800        9.75800       24.89600
C         19.81400        8.95400       23.84700
O         18.58800        8.99300       23.81500
C         21.13000       11.03300       24.28700
C         21.46100       12.09000       25.30700
C         22.27700       13.19500       24.68900
C         22.60900       14.23500       25.73400
N         23.80600       15.05400       25.34500
N         20.53500        8.21700       23.00300
C         19.88600        7.40500       21.97200
C         19.10400        6.25800       22.60500
O         17.95000        6.01600       22.24200
C         20.87500        6.85900       20.91400
C         20.11400        6.27400       19.73600
C         21.76900        7.96000       20.41900
N         19.72700        5.56600       23.56100
C         19.06000        4.47800       24.27300
C         17.77900        4.96700       24.93900
O         16.72400        4.33500       24.79500
C         19.98600        3.84000       25.28600
N         17.86900        6.10200       25.63500
C         16.69500        6.73100       26.25000
C         15.58700        7.00200       25.23400
O         14.41700        6.75000       25.51600
C         17.08400        8.01300       26.99200
N         15.96000        7.49800       24.05400
C         14.99200        7.72600       22.97800
C         14.37200        6.40900       22.51200
O         13.17500        6.35200       22.21200
C         15.63000        8.47100       21.82200
N         15.18400        5.35100       22.49000
C         14.71700        4.00600       22.16700
C         13.61300        3.49700       23.08400
O         12.75900        2.70300       22.66000
N         13.62100        3.94800       24.34100
C         12.58600        3.56600       25.32000
C         11.19700        3.96700       24.80100
O         10.20000        3.28300       25.07100
C         12.86800        4.17000       26.74500
C         14.11700        3.54500       27.39200
C         11.66200        4.04400       27.67500
C         13.94400        2.15500       27.88700
N         11.14600        5.04800       24.02600
C          9.87700        5.53700       23.49600
C          9.39000        4.66000       22.34300
O          8.18400        4.54200       22.12400
C          9.93500        7.03300       23.09700
C         10.70600        7.96800       24.07300
C          9.44600        8.01100       24.16900
C         10.38000        7.75800       25.56800
C          8.00400        7.76900       24.58500
O          9.21900        7.61200       25.95300
O          7.07200        7.95300       23.80000
N         11.42000        7.75600       26.40800
N          7.81500        7.35700       25.83100
N         10.32200        4.05000       21.60800
C          9.95600        3.07200       20.57900
C          9.31200        1.90600       21.31500
O          8.23100        1.44500       20.96300
C         11.18100        2.57700       19.74800
C         11.80400        3.73600       18.95600
C         10.79200        1.39100       18.83200
C         13.13200        3.41100       18.29800
N          9.98600        1.46400       22.36800
C          9.49200        0.40600       23.23000
C          8.08400        0.70100       23.75700
O          7.21900       -0.17100       23.75400
C         10.47000        0.22600       24.37900
C         10.39400       -1.03700       25.21100
C         10.42500       -2.26200       24.31100
C         11.57100       -1.02900       26.15200
N          7.86700        1.94300       24.18400
C          6.56900        2.40000       24.68200
C          5.45200        2.32200       23.64400
O          4.35600        1.88000       23.95400
C          6.68300        3.81600       25.22200
N          5.74100        2.74200       22.41800
C          4.72900        2.89900       21.37500
C          4.65700        1.71800       20.40600
O          3.57700        1.35200       19.95000
C          4.99000        4.17600       20.57500
C          4.78300        5.47800       21.34000
C          3.31200        5.88600       21.33900
C          3.12900        7.32800       21.77000
N          3.43400        7.44900       23.22400
N          5.80700        1.13900       20.07500
C          5.88500        0.04700       19.10300
C          6.80400       -1.04000       19.64000
O          7.89600       -1.24600       19.10600
C          6.42900        0.55400       17.76200
C          5.69000        1.72400       17.17200
C          4.57900        1.27100       16.27000
C          3.90400        2.45600       15.60700
N          2.89000        1.97400       14.63800
N          6.37100       -1.74200       20.70900
C          7.26700       -2.70500       21.36800
C          7.83700       -3.76900       20.41600
O          8.94000       -4.27200       20.64100
C          6.38100       -3.33400       22.45400
C          4.97800       -2.98200       22.09000
C          5.05000       -1.68600       21.36400
N          7.10600       -4.07800       19.35000
C          7.52500       -5.08700       18.39700
C          8.69400       -4.60700       17.53200
O          9.29300       -5.39700       16.80600
C          6.33200       -5.55800       17.54600
C          5.78700       -4.54500       16.52100
C          4.90600       -3.42300       17.11200
O          4.37200       -2.61400       16.31700
O          4.73600       -3.33600       18.34800
N          9.02400       -3.32000       17.62200
C         10.14200       -2.74800       16.87000
C         11.31600       -2.32900       17.76100
O         12.17000       -1.52800       17.35400
C          9.66500       -1.55500       16.06000
C          8.74400       -1.92200       14.95000
N          9.19500       -2.42000       13.74600
C          7.39600       -1.86100       14.85500
C          8.16200       -2.65200       12.95700
N          7.05800       -2.32500       13.60800
N         11.35600       -2.88000       18.97200
C         12.38100       -2.53400       19.95500
C         13.82600       -2.73000       19.46800
O         14.70500       -1.96300       19.84100
C         12.14500       -3.30000       21.24500
N         14.06200       -3.75000       18.64500
C         15.38400       -4.01100       18.07600
C         15.93200       -2.78500       17.33600
O         17.13600       -2.50000       17.38600
C         15.35200       -5.23100       17.11800
O         14.81100       -6.35700       17.80900
C         16.74600       -5.59600       16.61800
N         15.04500       -2.06500       16.65300
C         15.42900       -0.86600       15.92700
C         16.07200        0.14900       16.87700
O         17.12300        0.73600       16.55900
C         14.22200       -0.27600       15.20600
C         13.75300       -1.12400       14.04700
C         12.52000       -0.53400       13.39000
C         12.13700       -1.29100       12.13400
N         11.83200       -2.69300       12.42600
N         15.45400        0.31800       18.04900
C         15.97900        1.17500       19.11200
C         17.36300        0.75700       19.56300
O         18.23700        1.59900       19.78300
N         17.56500       -0.54900       19.68800
C         18.86200       -1.09200       20.05600
C         19.90900       -0.78200       18.98700
O         21.02100       -0.36200       19.31600
C         18.78900       -2.60900       20.31500
C         17.94800       -2.89200       21.56600
C         20.20000       -3.21600       20.44100
C         17.50500       -4.34300       21.68600
N         19.54700       -0.97200       17.71700
C         20.46700       -0.70100       16.61200
C         20.86400        0.78700       16.54400
O         22.05700        1.10100       16.43100
C         19.92900       -1.23700       15.26000
C         19.87700       -2.76600       15.28300
C         20.79300       -0.74400       14.07500
C         19.05300       -3.36800       14.16800
N         19.88800        1.69500       16.64100
C         20.19900        3.13300       16.69100
C         21.23100        3.43000       17.78300
O         22.21600        4.13200       17.53600
C         18.95600        3.98600       16.94400
C         17.98800        4.03300       15.79500
C         16.61200        3.92600       16.03500
C         18.43700        4.19400       14.48200
C         15.70500        3.97500       14.99500
C         17.53400        4.23600       13.42500
C         16.16000        4.13000       13.68100
N         21.00800        2.89000       18.98100
C         21.94300        3.05500       20.09200
C         23.30900        2.39800       19.82200
O         24.36700        2.96900       20.13800
C         21.33700        2.51600       21.36300
N         23.27900        1.21000       19.22200
C         24.48600        0.46000       18.92300
C         25.41000        1.23200       18.00400
O         26.61700        1.11500       18.12700
C         24.14400       -0.87300       18.31700
N         24.85400        2.03100       17.09500
C         25.68400        2.81500       16.17700
C         26.66600        3.74300       16.88800
O         27.74500        4.02100       16.36300
C         24.83200        3.60800       15.18900
C         24.00300        2.74500       14.25100
S         24.98400        1.53400       13.31700
C         24.77100        0.01000       14.28800
N         26.30000        4.21000       18.08000
C         27.18500        5.07900       18.85800
C         28.33400        4.26000       19.46300
O         29.43400        4.77700       19.68000
C         26.40900        5.88900       19.94200
C         27.33000        6.88400       20.65500
C         25.22800        6.63200       19.30900
N         28.08300        2.97300       19.69000
C         29.09200        2.05500       20.23500
C         30.43300        2.06400       19.46900
O         31.50900        1.99100       20.08100
C         28.53100        0.63100       20.29400
C         29.37000       -0.36200       21.08500
C         29.39900       -0.07600       22.58500
O         28.54600        0.69800       23.10400
O         30.28500       -0.64100       23.25900
N         30.36300        2.16200       18.14200
C         31.55200        2.22600       17.29300
C         32.68200        3.05900       17.89600
O         33.83800        2.62200       17.90800
C         31.22900        2.81800       15.90900
O         30.05400        2.19500       15.39500
C         32.37900        2.59600       14.93800
N         32.34700        4.24200       18.40700
C         33.37000        5.23100       18.76800
C         34.06900        4.90500       20.07700
O         35.25400        5.20100       20.24000
C         32.80300        6.66400       18.61700
C         32.18700        6.71100       17.24600
C         30.81700        6.56500       17.07200
C         33.00100        6.71400       16.10300
C         30.27100        6.50400       15.80300
C         32.46800        6.65200       14.84700
C         31.11000        6.54400       14.70300
O         30.60000        6.48100       13.44400
N         33.35200        4.21700       20.96400
C         33.96600        3.59900       22.13100
C         34.87900        2.43100       21.72600
O         35.98000        2.29900       22.24900
C         32.90700        3.14600       23.11500
N         34.43600        1.59300       20.79000
C         35.26600        0.47000       20.31800
C         36.55700        0.96700       19.64200
O         37.65200        0.48400       19.95300
C         34.47300       -0.52100       19.40400
C         33.42500       -1.28500       20.22900
C         35.39900       -1.52300       18.71800
C         32.32400       -1.91900       19.40000
N         36.43600        1.94300       18.74400
C         37.61600        2.55600       18.13900
C         38.56300        3.15400       19.19200
O         39.78700        2.96000       19.10700
C         37.23100        3.60200       17.09700
C         36.48200        3.11800       15.85300
C         36.12800        4.31500       14.96700
C         37.27400        2.07500       15.06500
N         38.00000        3.85400       20.18100
C         38.77700        4.37400       21.30000
C         39.47200        3.26700       22.06800
O         40.65000        3.38900       22.43100
N         38.74700        2.17400       22.30700
C         39.28100        1.02700       23.03000
C         40.44700        0.39000       22.27200
O         41.48300        0.08500       22.87000
C         38.16500        0.00400       23.29800
C         38.64100       -1.28500       23.93300
C         38.97600       -1.33200       25.29100
C         38.74700       -2.44600       23.17800
C         39.41700       -2.50900       25.88300
C         39.19000       -3.63900       23.76600
C         39.52500       -3.66800       25.12400
N         40.27200        0.20300       20.96000
C         41.28500       -0.43600       20.10600
C         42.59400        0.37200       20.08000
O         43.67500       -0.20000       20.24100
C         40.73100       -0.73600       18.67500
C         41.85200       -1.07700       17.68000
C         39.71700       -1.87000       18.72800
N         42.49400        1.69000       19.90700
C         43.66900        2.56400       19.95700
C         44.35000        2.52800       21.33100
O         45.56800        2.37600       21.41300
C         43.33300        4.02800       19.55000
C         42.93700        4.10000       18.07700
C         44.49800        4.97300       19.84000
C         43.98200        3.57200       17.10000
N         43.57200        2.65700       22.40700
C         44.12600        2.50900       23.76000
C         44.84200        1.18200       23.94600
O         45.95500        1.15300       24.46800
C         43.05000        2.68400       24.82500
O         42.81700        4.06300       25.05700
N         44.20400        0.10100       23.48900
C         44.76300       -1.24700       23.56600
C         46.14300       -1.34300       22.90400
O         47.11400       -1.78500       23.53800
C         43.79300       -2.26500       22.95500
C         44.15200       -3.70000       23.24900
C         43.65400       -4.34200       24.39100
C         44.97900       -4.41300       22.38400
C         43.99100       -5.68000       24.67600
C         45.32400       -5.74500       22.66200
C         44.82700       -6.38000       23.81200
N         46.21900       -0.92000       21.63900
C         47.47700       -0.89700       20.89400
C         48.54300       -0.06900       21.60000
O         49.68800       -0.49100       21.70500
C         47.28100       -0.37700       19.46500
C         46.48300       -1.24500       18.49300
C         46.26500       -0.49800       17.17900
C         47.15700       -2.58600       18.25400
N         48.16500        1.10400       22.08800
C         49.11500        1.98600       22.75100
C         49.63600        1.43700       24.08200
O         50.80200        1.63600       24.41300
C         48.52400        3.37900       22.93100
C         48.47500        4.24900       21.68000
C         47.75500        5.55600       21.96900
C         49.87300        4.50200       21.14700
N         48.77700        0.74500       24.83200
C         49.17600        0.12600       26.10000
C         50.20200       -0.96500       25.85800
O         51.21300       -1.01400       26.54900
C         47.97100       -0.42900       26.89200
C         48.43200       -1.28500       28.05900
C         47.13300        0.71100       27.40700
N         49.95100       -1.81800       24.86300
C         50.89500       -2.87900       24.48200
C         52.20300       -2.33200       23.94500
O         53.20700       -3.00500       23.98400
C         50.29200       -3.81900       23.44000
C         49.10300       -4.69700       23.82600
C         48.84700       -5.69700       22.71400
C         49.32800       -5.41000       25.14500
N         52.19600       -1.10800       23.44800
C         53.38900       -0.52000       22.85400
C         54.05200        0.55000       23.73600
O         55.06700        1.13000       23.36500
C         53.04400        0.01400       21.45500
C         54.26800        0.35900       20.63300
C         53.01300       -1.08700       20.39800
O         54.58500        1.53700       20.43600
O         53.86100       -1.13000       19.51100
N         54.96400       -0.66300       20.14200
N         52.04000       -1.98600       20.49800
N         53.48900        0.78700       24.92100
C         53.98800        1.82700       25.83200
C         55.41900        1.55900       26.26200
O         56.20600        2.50000       26.42400
C         53.09100        1.95700       27.04900
O         55.80500        0.39600       26.45000
N         61.66400       18.44500       32.73800
C         60.72900       17.57200       31.95700
C         60.95300       17.71300       30.46300
O         61.27900       16.74200       29.77500
C         59.26200       17.88600       32.28000
C         58.25100       17.26800       31.30800
S         58.11900       15.46900       31.41100
C         56.58300       15.28400       32.31300
N         60.75400       18.92800       29.96500
C         60.95600       19.21800       28.55700
C         62.40100       18.94300       28.15400
O         62.65600       18.37800       27.09400
C         60.56600       20.66500       28.24900
C         60.03300       20.88600       26.84300
S         58.77500       19.69200       26.31200
C         59.75100       18.68400       25.18800
N         63.33100       19.32600       29.02700
C         64.74400       19.04300       28.84500
C         65.02000       17.53300       28.85700
O         65.87000       17.04500       28.10200
C         65.55800       19.75100       29.92700
C         67.01700       19.90400       29.54600
O         67.79200       18.92400       29.67100
O         67.39000       21.01600       29.11800
N         64.29700       16.80700       29.70900
C         64.43500       15.35500       29.81500
C         63.95700       14.64500       28.55500
O         64.65600       13.77800       28.03900
C         63.69000       14.83600       31.04800
C         63.37900       13.34600       31.05300
C         64.36400       12.40400       31.35200
C         62.08900       12.88800       30.78300
C         64.07500       11.04800       31.37300
C         61.79100       11.53800       30.79500
C         62.78400       10.62200       31.09100
O         62.47700        9.28200       31.10000
N         62.77400       15.01800       28.06500
C         62.21800       14.43200       26.84400
C         63.11900       14.68900       25.63700
O         63.36900       13.78500       24.83800
C         60.80200       14.95200       26.57500
C         59.69200       14.55900       27.55100
C         58.40300       15.26800       27.18600
C         59.48500       13.05800       27.59900
N         63.60600       15.92400       25.52100
C         64.56100       16.29900       24.48100
C         65.79600       15.38900       24.51900
O         66.07700       14.69400       23.54200
C         64.93500       17.81400       24.56900
C         63.76300       18.67700       24.08100
C         66.21200       18.12500       23.78000
C         63.72000       20.07400       24.67300
N         66.49000       15.35900       25.66000
C         67.77900       14.67100       25.78900
C         67.70600       13.13900       25.85100
O         68.73100       12.47000       25.70000
C         68.60100       15.21200       27.00000
O         67.80600       15.16300       28.18900
C         69.05700       16.65700       26.75600
N         66.51200       12.58700       26.06700
C         66.32800       11.12700       26.15200
C         65.52200       10.56700       24.98700
O         65.02500        9.43300       25.06300
C         65.64600       10.72300       27.46700
C         66.35700       11.18300       28.72100
C         67.74800       10.62100       28.84300
O         67.94700        9.40500       28.79800
N         68.72700       11.50400       29.00400
N         65.40300       11.36100       23.91900
C         64.51600       11.06200       22.77900
C         63.10300       10.58100       23.17700
O         62.62100        9.54000       22.71500
C         65.18600       10.10400       21.78100
C         66.21100       10.80000       20.91500
O         67.32600       11.07000       21.35200
N         65.83800       11.09700       19.68300
N         62.44800       11.34200       24.04800
C         61.09500       11.01800       24.46300
C         60.04200       11.61700       23.54800
O         58.93300       11.88100       23.99100
N         60.37900       11.82400       22.27400
C         59.42600       12.34900       21.29000
C         58.21300       11.45600       21.08600
O         57.12900       11.92000       20.71300
N         58.41400       10.16300       21.33600
C         57.36600        9.14100       21.34600
C         56.11100        9.62800       22.09000
O         54.99100        9.42600       21.61200
C         57.95000        7.85600       21.96500
C         57.03000        6.64800       22.05100
C         56.94600        6.72400       22.22700
S         57.95000        5.09500       22.20800
S         56.13800        6.05500       20.76000
C         59.15400        5.44400       23.49800
C         57.36800        4.89800       20.16600
N         56.30200       10.29400       23.23400
C         55.18200       10.78100       24.04800
C         54.26200       11.67200       23.22200
O         53.04200       11.54200       23.31200
C         55.63100       11.48400       25.37800
C         56.58900       10.59500       26.16900
C         54.43400       11.99400       26.15600
C         56.23400       12.86100       25.12100
C         56.45100       10.52700       26.23600
N         54.84000       12.54100       22.39500
C         54.03500       13.43800       21.58200
C         53.31600       12.70900       20.45100
O         52.21500       13.11700       20.04800
C         54.87700       14.59600       21.05600
C         55.43200       15.45000       22.13300
C         56.79600       15.41800       22.42500
C         54.59500       16.26600       22.89300
C         57.32300       16.20400       23.45400
C         55.11100       17.06200       23.92200
C         56.47200       17.03200       24.20500
N         53.93600       11.63700       19.94500
C         53.32900       10.83200       18.88100
C         52.16300       10.03300       19.45800
O         51.14400        9.84000       18.78200
C         54.34500        9.92600       18.23800
N         52.30900        9.59400       20.71200
C         51.23200        8.90300       21.41300
C         50.07100        9.87200       21.60100
O         48.92100        9.53800       21.31200
C         51.69500        8.32000       22.76300
C         50.51700        7.78400       23.56500
C         52.72600        7.21900       22.52800
N         50.38600       11.08100       22.05500
C         49.38800       12.11600       22.23400
C         48.72700       12.45500       20.90300
O         47.52900       12.76500       20.86200
C         50.02700       13.36000       22.83600
C         49.10600       14.50600       23.29200
C         50.31900       13.33000       24.33100
C         48.24500       14.07000       24.46900
C         51.04100       14.60500       24.72600
C         49.90100       15.76100       23.64800
C         49.02400       13.16400       25.11700
N         49.51200       12.38700       19.82100
C         49.01300       12.61800       18.47200
C         47.90800       11.60600       18.13800
O         46.82200       11.97800       17.66600
C         50.15100       12.52900       17.46400
N         48.18600       10.32700       18.39700
C         47.20500        9.28000       18.15100
C         45.95400        9.48500       18.99600
O         44.83600        9.33000       18.49300
C         47.79800        7.91600       18.40800
C         48.82000        7.53000       17.39500
S         49.60700        5.95700       17.80200
C         48.17000        4.87800       17.86000
N         46.14400        9.84000       20.26900
C         45.02700       10.12400       21.16000
C         44.16400       11.25300       20.58100
O         42.94900       11.11300       20.49000
C         45.52300       10.46300       22.57300
N         44.80900       12.33800       20.15500
C         44.11300       13.52600       19.64600
C         43.27800       13.24200       18.40600
O         42.08800       13.58500       18.37000
C         45.09500       14.67700       19.38200
O         46.25700       14.18800       18.70900
O         45.78900       14.96300       20.60200
C         45.51300       15.32800       20.68000
C         44.39200       15.92600       18.86800
N         43.89600       12.61700       17.40100
C         43.18800       12.19500       16.19000
C         41.94100       11.34900       16.52100
O         40.85800       11.59100       15.98200
C         44.12600       11.42900       15.27600
N         42.10400       10.37900       17.42300
C         41.03300        9.46900       17.80900
C         39.92800       10.16300       18.60300
O         38.74300       10.04700       18.25100
C         41.58000        8.30700       18.63900
O         42.67400        7.71600       17.93500
C         40.50100        7.25900       18.89800
N         40.31700       10.87100       19.66500
C         39.36300       11.45600       20.60800
C         38.40700       12.46200       19.95500
O         37.17800       12.27100       19.97600
C         40.06800       12.06200       21.84800
C         40.65100       10.94100       22.70400
C         39.09500       12.89700       22.69300
C         41.80000       11.38100       23.58000
N         38.96700       13.50800       19.35800
C         38.14000       14.60100       18.83600
C         37.24400       14.24300       17.64100
O         36.07800       14.63900       17.59700
C         38.97600       15.85500       18.63000
C         39.55000       16.36600       19.90200
C         40.87100       16.08200       20.25700
C         38.74200       17.04500       20.81300
C         41.40100       16.52600       21.48300
C         39.26200       17.48400       22.04200
C         40.59600       17.22300       22.37500
N         37.76400       13.45900       16.70200
C         36.93700       12.93000       15.62000
C         35.87500       11.97300       16.18900
O         34.71500       12.00700       15.76400
C         37.79000       12.23900       14.56000
O         38.45500       11.11900       15.11200
N         36.26800       11.13900       17.15400
C         35.33800       10.23200       17.81500
C         34.21000       10.97100       18.52600
O         33.05100       10.55500       18.44300
N         34.53600       12.07400       19.21300
C         33.52200       12.86700       19.89900
C         32.54100       13.43000       18.87300
O         31.32200       13.35300       19.07800
C         34.14400       13.99700       20.74700
C         34.88200       13.42000       21.95500
C         33.07000       14.96800       21.24200
C         35.75400       14.44300       22.68200
N         33.07600       13.96800       17.77100
C         32.26300       14.51600       16.68800
C         31.25900       13.50800       16.14100
O         30.06800       13.81500       15.96500
N         31.73200       12.29200       15.88700
C         30.85800       11.22600       15.43600
C         29.88200       10.79400       16.53000
O         28.69100       10.60900       16.26400
C         31.66800       10.03600       14.93200
O         32.13200       10.27400       13.61200
N         30.36800       10.64200       17.75900
C         29.49600       10.19200       18.84100
C         28.33400       11.16400       18.98600
O         27.17800       10.74900       19.09400
C         30.25700       10.04300       20.15000
N         28.63700       12.45800       18.94700
C         27.60000       13.46600       19.06000
C         26.66800       13.49500       17.84800
O         25.44200       13.51600       18.00400
C         28.21900       14.83300       19.30200
C         28.61100       15.03800       20.73100
C         29.32300       16.34900       20.90400
C         29.37000       16.72800       22.37600
N         27.99700       17.06500       22.86100
N         27.25300       13.47600       16.65100
C         26.47800       13.54300       15.41100
C         25.60200       12.32000       15.19900
O         24.40300       12.44800       14.90200
N         26.20400       11.13900       15.33800
C         25.48300        9.87500       15.20400
C         24.42600        9.78400       16.30300
O         23.29900        9.34000       16.06200
C         26.44800        8.65400       15.27000
C         25.68900        7.34500       15.38000
C         27.37200        8.63000       14.06500
N         24.79600       10.23100       17.50400
C         23.86800       10.30600       18.63300
C         22.63400       11.15100       18.34900
O         21.49700       10.67800       18.48200
N         22.86100       12.39900       17.94800
C         21.77700       13.30500       17.61700
C         20.84400       12.74500       16.54400
O         19.62300       12.76100       16.71800
C         22.31500       14.65200       17.16200
C         21.21100       15.60500       16.78300
S         21.80500       17.23500       16.33100
C         22.03000       17.96500       17.98800
N         21.41600       12.26500       15.43700
C         20.63200       11.69800       14.34100
C         19.88100       10.46300       14.82900
O         18.70800       10.27700       14.49300
C         21.51400       11.36000       13.12000
O         22.30800       12.50200       12.76800
C         20.66900       10.97800       11.93000
N         20.55000        9.64300       15.64100
C         19.91700        8.49400       16.28500
C         18.66300        8.83200       17.08700
O         17.65100        8.13400       16.99300
N         18.73200        9.90500       17.87600
C         17.57300       10.39300       18.63500
C         16.39400       10.74400       17.70900
O         15.25500       10.35900       17.96600
C         17.96000       11.60000       19.49000
C         19.01900       11.30100       20.55200
C         19.45400       12.55800       21.31800
O         18.57900       13.22400       21.91500
O         20.66700       12.88400       21.32400
N         16.68900       11.46600       16.63000
C         15.69200       11.84900       15.63700
C         15.12000       10.61200       14.93200
O         13.90100       10.51200       14.70300
C         16.29700       12.83000       14.62100
N         16.00500        9.67700       14.58400
C         15.59500        8.43700       13.92600
C         14.70300        7.60900       14.86100
O         13.69000        7.06200       14.42500
C         16.79800        7.65100       13.46900
N         15.05700        7.54800       16.14900
C         14.24600        6.82500       17.13700
C         12.84600        7.43900       17.24400
O         11.83700        6.71700       17.22800
C         14.93300        6.78200       18.49100
N         12.79100        8.77300       17.32800
C         11.52000        9.50200       17.39300
C         10.62500        9.17500       16.17800
O          9.45000        8.85900       16.35700
C         11.75700       10.98500       17.51800
N         11.19000        9.21300       14.96400
C         10.47100        8.81200       13.75800
C          9.97400        7.36700       13.82200
O          8.85100        7.06600       13.38500
C         11.33700        8.99800       12.50800
C         10.72300        8.53700       11.17300
C          9.44000        9.29500       10.81200
C         11.73000        8.61600       10.04100
N         10.81000        6.48000       14.36600
C         10.49300        5.04800       14.42400
C          9.28100        4.73500       15.30700
O          8.58500        3.74500       15.07400
C         11.71400        4.22200       14.85400
O         12.77700        4.46100       13.92400
C         11.39500        2.73800       14.87600
N          9.01900        5.59300       16.29500
C          7.89600        5.38100       17.21400
C          6.55900        5.48200       16.49800
O          5.54700        4.98500       17.00200
C          7.87900        6.37200       18.40800
O          7.50000        7.66900       17.94200
C          9.23300        6.45300       19.10700
N          6.53600        6.12700       15.33400
C          5.29700        6.17500       14.56100
C          5.40300        5.55400       13.15900
O          4.42900        5.00300       12.66000
C          4.72700        7.59400       14.50300
O          5.33100        8.33600       13.46300
N          6.56800        5.64800       12.52600
C          6.75000        5.05200       11.20100
C          7.98300        4.13800       11.14900
O          9.01100        4.50800       10.58600
C          6.83800        6.13700       10.12800
C          5.64100        7.05800       10.05000
C          5.96200        8.32400        9.27900
O          6.14000        8.29000        8.06100
N          6.05700        9.45300        9.99100
N          7.88800        2.94100       11.75200
C          9.05800        2.05600       11.83700
C          9.51900        1.51600       10.48400
O         10.65200        1.05300       10.36500
C          8.56900        0.91400       12.72800
C          7.09100        0.93900       12.60100
C          6.70500        2.35900       12.40900
N          8.65900        1.58800        9.47400
C          8.99400        1.04800        8.15400
C         10.07400        1.85100        7.43600
O         10.61400        1.40100        6.43300
C          7.74600        0.91300        7.27100
C          7.14000        2.23000        6.79800
C          6.25300        2.92000        7.84600
O          5.82600        4.06600        7.56100
O          5.97600        2.33800        8.93200
N         10.39000        3.02900        7.95700
C         11.39100        3.89800        7.35600
C         12.77200        3.73100        8.00100
O         13.69100        4.51600        7.75900
C         10.90700        5.34500        7.42300
C          9.71500        5.57800        6.52900
C          9.04800        6.89400        6.81000
C          7.92200        7.11600        5.81900
N          7.42000        8.51200        5.88300
N         12.90100        2.67400        8.79300
C         14.10600        2.35200        9.55600
C         15.41200        2.34600        8.74700
O         16.37600        3.02000        9.12100
C         13.90000        1.01000       10.27100
C         15.10900        0.50700       10.98400
C         15.60200        1.17100       12.11100
C         15.76500       -0.63200       10.53700
C         16.73400        0.70500       12.77700
C         16.90300       -1.10500       11.19700
C         17.38500       -0.44100       12.31800
N         15.44200        1.59000        7.65200
C         16.64300        1.46800        6.83300
C         17.17600        2.80000        6.33400
O         18.38000        3.07000        6.39900
N         16.27600        3.64000        5.83400
C         16.65200        4.96600        5.34400
C         17.14100        5.85200        6.51200
O         18.13100        6.58100        6.37900
C         15.49300        5.62600        4.57000
C         14.82000        4.74400        3.48500
C         15.21400        5.01600        3.20100
C         13.56200        3.98300        3.97400
C         16.15900        5.50900        2.13000
O         12.42500        4.41400        3.73600
O         17.34900        5.19900        2.13700
N         13.77000        2.84600        4.64200
N         15.63000        6.27800        1.19300
N         16.45800        5.76100        7.65600
C         16.85000        6.48300        8.86300
C         18.24200        6.05700        9.30500
O         19.05100        6.88700        9.74600
C         15.85600        6.25200        9.97200
N         18.52500        4.76400        9.17100
C         19.81600        4.22400        9.54900
C         20.94600        4.81100        8.69300
O         21.99100        5.20800        9.23700
C         19.78800        2.69600        9.48500
C         20.87100        1.90600       10.21400
C         21.08900        2.42200       11.62800
C         20.50300        0.43800       10.22700
N         20.73200        4.89100        7.37300
C         21.72200        5.48500        6.46200
C         22.05900        6.92800        6.86600
O         23.23400        7.31300        6.91300
C         21.26100        5.43300        4.98400
C         21.23100        3.98600        4.48000
C         22.15400        6.31600        4.07800
C         20.37100        3.80000        3.26700
N         21.02800        7.71600        7.16700
C         21.22600        9.08600        7.64100
C         22.07500        9.13800        8.91700
O         22.95100        9.99000        9.05300
C         19.87900        9.80000        7.84300
C         19.17900       10.31900        6.58200
C         17.73400       10.68200        6.87800
C         19.94100       11.51000        5.99000
N         21.83100        8.20300        9.83100
C         22.56900        8.14600       11.09000
C         24.04100        7.80300       10.88200
O         24.88200        8.20100       11.69100
C         21.93300        7.14500       12.04800
C         22.42000        7.30800       13.46800
C         22.09900        6.11200       14.34700
O         21.61200        5.08100       13.86800
N         22.38200        6.23800       15.64300
N         24.34700        7.07000        9.80900
C         25.72800        6.66600        9.52200
C         26.59800        7.80300        8.99100
O         27.81300        7.80300        9.21900
C         25.77500        5.46200        8.56700
C         25.25000        4.11300        9.09000
C         25.51500        3.01700        8.07800
C         25.81600        3.73200       10.48800
N         25.98900        8.77200        8.30000
C         26.74100        9.90600        7.71700
C         27.69800       10.61500        8.70200
O         28.88900       10.73800        8.40700
C         25.80200       10.89900        7.02700
C         25.42500       10.67400        5.55600
C         25.72900        9.26200        5.00800
C         23.94800       11.05700        5.34200
N         27.19900       11.05400        9.88700
C         28.13500       11.69300       10.83800
C         29.10200       10.67800       11.48500
O         29.98100       11.05300       12.27200
C         27.21400       12.31200       11.90000
C         25.83100       12.10200       11.42800
C         25.83100       10.99400       10.43300
N         28.94700        9.40700       11.13700
C         29.78000        8.37400       11.70100
C         31.13900        8.19400       11.06500
O         31.98900        7.51700       11.62900
N         31.34400        8.78800        9.89300
C         32.58900        8.62200        9.14900
C         33.76600        9.36700        9.80700
O         34.91400        8.90100        9.74400
C         32.43900        9.07400        7.67400
O         31.93300       10.41600        7.63900
C         31.49700        8.15800        6.90400
N         33.48200       10.51400       10.43000
C         34.52300       11.35900       11.03700
C         35.46000       10.59700       11.97800
O         36.68400       10.70100       11.85700
C         33.89200       12.52800       11.78900
C         33.55800       13.71700       10.92200
C         32.26200       13.55900       10.11200
O         31.74900       12.44100        9.91400
N         31.73500       14.69100        9.62500
N         34.87800        9.84200       12.91000
C         35.64400        9.06500       13.87100
C         36.45500        7.96500       13.20900
O         37.51600        7.59300       13.72200
N         35.96600        7.43800       12.08000
C         36.71200        6.42600       11.33000
C         37.94800        7.01300       10.67300
O         39.00200        6.38400       10.68800
C         35.83900        5.72000       10.29500
C         34.74800        4.78600       10.83600
C         33.72000        4.43700        9.75000
C         35.34700        3.51500       11.45800
N         37.82500        8.21500       10.10600
C         38.98300        8.95400        9.58600
C         40.04900        9.16700       10.65800
O         41.24000        8.91500       10.41200
C         38.57400       10.31800        9.03900
C         37.60700       10.29800        7.88400
C         36.64300       11.29300        7.76100
C         37.66500        9.30200        6.90800
C         35.75000       11.30100        6.71400
C         36.77100        9.29300        5.84600
C         35.81000       10.30100        5.75800
O         34.91000       10.32800        4.71700
N         39.62000        9.62700       11.83600
C         40.53200        9.86300       12.95400
C         41.26400        8.59000       13.37200
O         42.48800        8.58300       13.58800
N         40.50200        7.50600       13.48400
C         41.05500        6.19600       13.79700
C         42.12900        5.81700       12.77500
O         43.22000        5.36800       13.15700
C         39.93800        5.13700       13.84800
C         40.43800        3.73700       14.09800
C         40.71300        3.30500       15.38700
C         40.64700        2.85700       13.03900
C         41.19400        2.01600       15.62700
C         41.12600        1.56000       13.26400
C         41.39900        1.14300       14.56400
N         41.81700        6.01300       11.48700
C         42.75400        5.69500       10.39500
C         44.04600        6.52300       10.50800
O         45.13900        5.97600       10.42400
C         42.10100        5.78800        8.98400
C         43.15900        5.73200        7.88200
C         41.08100        4.65900        8.78900
N         43.91500        7.82300       10.75100
C         45.07900        8.67300       10.98800
C         45.88000        8.18500       12.19300
O         47.11000        8.10800       12.13100
C         44.68200       10.17500       11.14400
C         44.18700       10.74900        9.81500
C         45.84500       11.02200       11.68500
C         45.15500       10.58400        8.65400
N         45.19200        7.84600       13.28200
C         45.86100        7.32100       14.47900
C         46.66500        6.05900       14.15800
O         47.81100        5.91600       14.58000
C         44.84600        7.05000       15.59500
N         46.06400        5.15500       13.39900
C         46.71900        3.90800       13.04900
C         47.91500        4.13700       12.11200
O         48.90300        3.40100       12.15700
C         45.70200        2.93900       12.41800
C         46.22900        1.55800       12.23300
C         46.29500        0.67900       13.31600
C         46.68300        1.13400       10.98200
C         46.81100       -0.62000       13.16100
C         47.20400       -0.16800       10.80500
C         47.26700       -1.04800       11.90000
N         47.81200        5.15400       11.25900
C         48.88400        5.51000       10.33500
C         50.07900        6.08300       11.08300
O         51.22400        5.79200       10.72800
C         48.38500        6.50000        9.29000
C         49.25000        6.69900        8.04100
C         47.49400        5.93900        8.17700
C         49.15900        5.49100        7.09300
C         46.62100        7.03500        7.61700
C         48.85200        7.98900        7.32500
C         48.30000        5.26200        7.06900
N         49.80900        6.88500       12.11700
C         50.85600        7.30400       13.04600
C         51.46600        6.07900       13.72400
O         52.69000        5.93800       13.77700
C         50.35100        8.31200       14.11100
C         49.84800        9.60000       13.44200
C         51.46600        8.64100       15.12200
C         49.06800       10.53000       14.36300
N         50.61100        5.18400       14.20600
C         51.06300        4.00200       14.93600
C         52.10100        3.18900       14.16200
O         53.15600        2.84800       14.69700
C         49.87300        3.12400       15.32800
C         50.24700        1.91200       16.13100
C         50.71500        2.04300       17.44100
C         50.12500        0.63100       15.58000
C         51.05900        0.91400       18.19300
C         50.46600       -0.50800       16.32100
C         50.93100       -0.36700       17.63200
N         51.81100        2.89300       12.90200
C         52.72600        2.09800       12.09400
C         53.97100        2.87800       11.65200
O         54.89700        2.30200       11.10900
C         52.02600        1.43500       10.88100
C         51.59100        2.48500        9.85900
C         50.84800        0.57200       11.34300
C         50.99000        1.90100        8.58700
N         54.00600        4.17900       11.89900
C         55.19400        4.97500       11.58800
C         55.98400        5.37300       12.82800
O         56.81900        6.27600       12.77100
C         54.81300        6.21700       10.78000
C         54.57000        5.90300        9.32400
O         55.51400        5.68900        8.56500
N         53.29900        5.87100        8.91900
N         55.72600        4.69100       13.94000
C         56.39400        4.97800       15.20700
C         57.87000        4.54800       15.23400
O         58.54000        4.51000       14.19400
C         55.61600        4.33700       16.36200
C         54.78700        5.20700       17.32400
C         54.19800        6.42700       16.65400
C         53.69300        4.39200       17.99800
N         58.36900        4.21400       16.42600
C         59.78800        3.89000       16.64300
C         60.26000        4.61300       17.89700
O         59.84400        5.75600       18.16100
N         61.11500        3.95700       18.68100
C         61.56400        4.52100       19.96600
C         62.78500        5.45600       19.82500
O         63.22800        6.08500       20.80200
C         61.82200        3.40000       20.99100
O         62.81200        2.49300       20.53100
N         63.31300        5.55400       18.60600
C         64.44800        6.42700       18.32400
C         63.97200        7.85000       18.00700
O         64.78000        8.70800       17.64200
C         65.27400        5.85200       17.15300
C         66.78100        6.08600       17.31300
C         64.42900        5.60300       15.88900
O         67.20800        7.24700       17.49300
O         63.19700        5.39000       16.00200
O         67.54200        5.10000       17.24400
O         65.00900        5.61300       14.78000
N         62.66700        8.08900       18.16600
C         62.00000        9.31100       17.70100
C         62.38700       10.58000       18.47500
O         62.36400       10.59500       19.71300
C         60.48900        9.10700       17.75900
C         59.67500       10.15400       17.02400
S         57.90600        9.94500       17.27000
C         57.63200        8.32300       16.54000
N         62.72600       11.64000       17.73600
C         63.06700       12.93400       18.32600
C         61.82100       13.73400       18.69900
O         60.71900       13.45300       18.21300
C         63.94500       13.75200       17.37800
O         63.20800       14.28000       16.28800
N         62.00800       14.73400       19.56000
C         60.92000       15.62600       19.97700
C         60.33600       16.41600       18.79700
O         59.11400       16.57400       18.70900
C         61.33100       16.54300       21.17000
C         60.33400       17.68500       21.37900
C         61.43700       15.71500       22.44400
N         61.19700       16.88200       17.88800
C         60.73900       17.53000       16.64600
C         59.79000       16.62500       15.84900
O         58.68700       17.05600       15.45900
C         61.91100       18.00700       15.75200
C         61.42400       18.39400       14.35900
C         62.61300       19.19200       16.39000
N         60.20100       15.37200       15.62900
C         59.33900       14.41800       14.93500
C         58.02300       14.13700       15.68800
O         56.95300       14.10600       15.07100
C         60.07500       13.12300       14.61300
C         59.30600       12.25300       13.61100
C         60.03500       10.97000       13.22900
O         61.09100       10.64100       13.78600
N         59.47500       10.23900       12.26900
N         58.11000       13.92900       17.00200
C         56.92800       13.71900       17.83300
C         55.94800       14.88000       17.73900
O         54.73200       14.68300       17.55500
N         56.47300       16.09900       17.85600
C         55.66400       17.29100       17.65300
C         55.07700       17.39100       16.22800
O         53.93800       17.84500       16.05800
C         56.45600       18.54600       17.99500
C         56.81800       18.76800       19.46400
C         57.73700       19.98600       19.59900
C         55.57500       18.91500       20.35100
N         55.83100       16.97500       15.21100
C         55.27600       16.93700       13.85700
C         54.07000       16.03200       13.75700
O         53.10600       16.38500       13.08000
C         56.31200       16.51100       12.82400
C         57.32200       17.61500       12.51300
O         57.04700       18.80500       12.70600
N         58.49900       17.22000       12.03300
N         54.11900       14.87300       14.42600
C         52.97700       13.96100       14.48900
C         51.80600       14.61700       15.22000
O         50.65600       14.48700       14.80100
C         53.35600       12.65400       15.18000
C         54.07700       11.67300       14.29700
C         55.35600       11.24400       14.62700
C         53.47200       11.15700       13.14400
C         56.02200       10.32500       13.82500
C         54.13200       10.24500       12.33600
C         55.40800        9.82500       12.68000
N         52.10400       15.32500       16.31200
C         51.06900       15.99700       17.08900
C         50.37000       17.06100       16.25800
O         49.14000       17.18100       16.29400
C         51.63600       16.59800       18.36800
C         50.62900       17.19400       19.35500
C         49.47600       16.23800       19.63500
C         51.31800       17.56900       20.64800
N         51.14900       17.82200       15.49800
C         50.57900       18.79200       14.57100
C         49.74700       18.11100       13.50000
O         48.62900       18.55200       13.20100
N         50.29000       17.02600       12.93900
C         49.61800       16.24500       11.89900
C         48.23200       15.75800       12.33600
O         47.32000       15.63900       11.51400
C         50.48300       15.06400       11.47600
N         48.06500       15.48500       13.62600
C         46.81900       14.91900       14.09800
C         45.70400       15.96600       14.21500
O         44.51500       15.62400       14.23900
C         47.03500       14.21500       15.43500
O         47.15900       15.16100       16.47700
N         46.08600       17.23600       14.29900
C         45.11500       18.28900       14.59800
C         44.02100       18.48100       13.53500
O         42.83600       18.56000       13.90300
C         45.80200       19.61100       14.92400
C         46.73600       19.60600       16.13200
C         47.34100       20.99100       16.32100
C         46.03100       19.16100       17.39600
N         44.39800       18.54100       12.22500
C         43.36200       18.71600       11.19400
C         42.19400       17.71700       11.28500
O         41.04400       18.14100       11.40300
C         44.14400       18.57400        9.89100
C         45.50500       19.06400       10.25700
C         45.73800       18.48600       11.61200
N         42.46700       16.41600       11.28100
C         41.37100       15.46400       11.41500
C         40.67800       15.53400       12.77500
O         39.46200       15.37800       12.84700
C         41.76600       14.01300       11.06700
C         40.51200       13.14600       10.84500
C         42.63700       13.40600       12.15300
C         39.45500       13.74500        9.91700
N         41.43400       15.78600       13.84100
C         40.84800       15.89600       15.17900
C         39.73500       16.94800       15.19400
O         38.59500       16.66200       15.58000
C         41.91100       16.23000       16.21000
N         40.05400       18.15100       14.73400
C         39.12000       19.26000       14.90500
C         38.11800       19.50200       13.77700
O         36.97400       19.88600       14.06100
C         39.83900       20.52300       15.40000
C         40.41400       20.34200       16.77100
C         41.76900       20.00900       16.94200
C         39.58300       20.38900       17.89100
C         42.29800       19.78600       18.21500
C         40.09700       20.15400       19.17500
C         41.45600       19.85800       19.33800
N         38.50900       19.24200       12.52400
C         37.51900       19.22500       11.45800
C         36.55600       18.06600       11.73400
O         35.35300       18.19000       11.50800
C         38.12800       19.12500       10.03000
O         38.92200       17.93900        9.92400
C         38.97800       20.35200        9.68900
N         37.08800       16.96100       12.25900
C         36.27200       15.81100       12.63500
C         35.24200       16.15000       13.69800
O         34.05200       15.86400       13.53400
N         35.69900       16.76200       14.79000
C         34.81700       17.18500       15.85700
C         33.68800       18.06600       15.33200
O         32.50800       17.76600       15.54000
C         35.59600       17.94700       16.93000
C         34.79600       18.59300       18.07300
C         34.07100       17.51500       18.89700
C         35.70900       19.41000       18.95500
N         34.04000       19.15700       14.65600
C         33.03200       20.14300       14.28700
C         32.15800       19.69500       13.12000
O         30.94100       19.91400       13.12900
C         33.66500       21.51600       14.06700
C         34.16800       22.13600       15.32600
C         35.47400       21.91300       15.75700
C         33.32700       22.92400       16.11800
C         35.94400       22.48800       16.94800
C         33.78900       23.50500       17.31400
C         35.09200       23.29000       17.72400
N         32.76000       19.05300       12.12800
C         31.96800       18.61000       10.99300
C         31.02600       17.51200       11.44900
O         29.87300       17.47800       11.01400
C         32.82700       18.18100        9.79000
O         33.54800       17.00000       10.06900
N         31.50000       16.64400       12.34500
C         30.67000       15.57300       12.90900
C         29.38700       16.12200       13.53000
O         28.27900       15.69100       13.20200
N         29.54200       17.09100       14.42500
C         28.42000       17.78400       15.03500
C         27.53100       18.45000       13.98100
O         26.30700       18.24500       13.99000
C         28.91500       18.80700       16.06600
C         29.48800       18.05900       17.27100
C         27.79900       19.77900       16.47400
C         30.34700       18.90300       18.18200
N         28.13800       19.23000       13.07900
C         27.38300       19.94000       12.03700
C         26.62500       18.95700       11.13500
O         25.43200       19.16600       10.82200
C         28.29300       20.81300       11.21700
N         27.30400       17.87700       10.74600
C         26.71200       16.89800        9.85400
C         25.53000       16.20400       10.53100
O         24.51100       15.92800        9.89000
C         27.75700       15.88500        9.40200
C         27.30000       15.02100        8.26500
C         28.41700       14.19400        7.69400
O         29.22400       13.62900        8.43000
N         28.47700       14.11100        6.37100
N         25.66700       15.94200       11.82800
C         24.60400       15.32100       12.60600
C         23.33900       16.16400       12.58600
O         22.22100       15.62800       12.48700
N         23.50900       17.48400       12.67500
C         22.37100       18.38400       12.63700
C         21.66200       18.29200       11.28900
O         20.42800       18.24400       11.24100
C         22.79400       19.81500       12.92800
C         23.14500       20.06000       14.36800
C         23.75400       21.44800       14.55400
C         23.97500       21.71100       16.02700
N         25.12900       22.62900       16.24700
N         22.43000       18.25100       10.19900
C         21.83100       18.15500        8.87300
C         21.16000       16.79300        8.70400
O         20.02500       16.70400        8.23100
C         22.83900       18.42200        7.74800
C         22.12900       18.56100        6.42600
C         23.58300       19.69400        8.01500
N         21.84400       15.73000        9.11900
C         21.27200       14.38100        9.02100
C         19.95900       14.27100        9.79900
O         18.97000       13.74500        9.28600
C         22.27100       13.32200        9.46900
N         19.95500       14.78700       11.02900
C         18.73300       14.87100       11.85400
C         17.59200       15.61700       11.15600
O         16.45000       15.15900       11.17600
C         19.03600       15.51400       13.19000
N         17.90500       16.75800       10.53800
C         16.93800       17.48700        9.72000
C         16.41000       16.61700        8.55700
O         15.21400       16.64300        8.25500
C         17.54400       18.78600        9.21800
N         17.30100       15.83300        7.94300
C         16.94400       14.91900        6.87200
C         15.90400       13.88800        7.28000
O         15.09400       13.43300        6.44800
N         15.91300       13.51500        8.55600
C         14.92000       12.57300        9.08200
C         13.49600       13.10100        8.83200
O         12.57400       12.32400        8.60100
C         15.17700       12.23400       10.59900
C         16.48700       11.44200       10.77800
C         13.98800       11.51700       11.24100
C         16.42900        9.99100       10.38000
N         13.32900       14.42000        8.84300
C         12.00600       15.01700        8.65400
C         11.57900       14.94900        7.18900
O         10.38100       14.87800        6.89900
C         11.91900       16.46200        9.20500
C         12.64200       16.70100       10.57200
C         11.38500       16.58400       10.62000
C         12.37500       15.62200       11.65000
C          9.97800       16.03300       10.77400
O         11.24100       15.17900       11.83900
O          9.02000       16.55900       10.21500
N         13.43000       15.21600       12.36400
N          9.85200       14.96800       11.54400
N         12.55100       14.96900        6.27200
C         12.25900       14.74000        4.84800
C         11.74000       13.30800        4.72100
O         10.70700       13.04900        4.10500
C         13.50200       14.92300        3.93000
C         14.00900       16.36900        3.97600
C         13.19200       14.46400        2.48400
C         15.37000       16.55900        3.36000
N         12.46600       12.39000        5.34400
C         12.06400       11.00300        5.41300
C         10.64000       10.83800        5.97000
O          9.85500       10.04300        5.45500
C         13.07400       10.25700        6.27500
C         13.11200        8.74400        6.23800
C         13.19300        8.26000        4.80600
C         14.32200        8.31100        7.01700
N         10.32000       11.60500        7.01400
C          9.00400       11.56300        7.65800
C          7.88400       12.00100        6.71600
O          6.84200       11.35900        6.64800
C          9.00200       12.41800        8.92000
N          8.11300       13.08700        5.98300
C          7.06800       13.73500        5.19400
C          7.06900       13.32800        3.71400
O          6.02000       13.22500        3.09500
C          7.21300       15.25500        5.31200
C          6.91900       15.83200        6.70200
C          5.42300       16.07100        6.87600
C          5.13600       16.95900        8.06000
N          5.44400       16.24000        9.32200
N          8.25400       13.12700        3.15000
C          8.41200       12.84600        1.72700
C          9.43600       11.72600        1.55800
O         10.53200       11.94700        1.02400
C          8.90500       14.09400        0.98400
C          8.06000       15.33300        1.14400
C          7.02200       15.41800        0.07400
C          6.23400       16.68400        0.20300
N          5.25300       16.75600       -0.91600
N          9.08600       10.50700        2.01100
C         10.06600        9.42000        2.01500
C         10.69500        9.17000        0.64400
O         11.83900        8.73600        0.56900
C          9.25300        8.20800        2.48100
C          7.81800        8.60600        2.36100
C          7.78000       10.07200        2.53800
N          9.96800        9.46500       -0.42800
C         10.47200        9.25600       -1.78500
C         11.59900       10.23200       -2.16000
O         12.25600       10.06000       -3.17500
C          9.32100        9.28200       -2.80900
C          8.69600       10.66800       -3.06600
C          7.72800       11.16600       -1.96200
O          7.12900       12.25300       -2.16600
O          7.55300       10.49500       -0.90800
N         11.82600       11.24200       -1.32400
C         12.88900       12.22800       -1.55200
C         14.04200       12.12200       -0.54000
O         14.83000       13.06200       -0.36600
C         12.30800       13.63600       -1.52100
C         11.41000       13.93800       -2.67300
N         11.88800       14.27500       -3.92100
C         10.06100       13.96300       -2.76600
C         10.87200       14.49600       -4.73300
N          9.75200       14.31200       -4.05900
N         14.14800       10.97000        0.11400
C         15.14100       10.76400        1.16700
C         16.59800       10.96500        0.70400
O         17.44700       11.41500        1.48600
C         14.96100        9.39700        1.79900
N         16.88200       10.64300       -0.55600
C         18.20900       10.88400       -1.13300
C         18.63600       12.34700       -0.99100
O         19.81500       12.63700       -0.76000
C         18.26700       10.47400       -2.61800
O         17.84200        9.12000       -2.74100
C         19.67900       10.58000       -3.17500
N         17.68100       13.26400       -1.13200
C         17.97600       14.68500       -1.01000
C         18.55500       14.99800        0.37300
O         19.54500       15.72400        0.49100
C         16.72800       15.50900       -1.30100
C         16.33300       15.47700       -2.76400
C         15.08000       16.27900       -2.99300
C         14.73700       16.31000       -4.44900
N         14.50900       14.94500       -4.97900
N         17.94800       14.41500        1.40700
C         18.41600       14.56600        2.78000
C         19.82500       14.02700        2.97100
O         20.63600       14.63500        3.69000
N         20.12000       12.88900        2.32700
C         21.47200       12.33800        2.31900
C         22.46800       13.30800        1.66500
O         23.53400       13.54600        2.21600
C         21.53500       10.95200        1.63900
C         20.73200        9.93800        2.44500
C         22.99300       10.48500        1.45300
C         20.46000        8.66900        1.69300
N         22.10800       13.87800        0.51700
C         22.98900       14.81600       -0.18400
C         23.27300       16.07400        0.64800
O         24.42800       16.49900        0.77000
C         22.47400       15.14800       -1.60900
C         22.54700       13.89500       -2.50100
C         23.28000       16.27400       -2.23700
C         21.78200       14.00100       -3.79500
N         22.23600       16.65000        1.25200
C         22.41700       17.82300        2.12700
C         23.43000       17.51900        3.22300
O         24.30500       18.34300        3.51300
C         21.10400       18.26600        2.78100
C         20.12000       18.91500        1.84100
C         18.76600       18.56300        1.89700
C         20.52600       19.88900        0.93300
C         17.83000       19.16800        1.05000
C         19.60100       20.49900        0.07800
C         18.24700       20.13900        0.13600
N         23.30400       16.33800        3.82900
C         24.21000       15.92400        4.88900
C         25.60700       15.63800        4.33300
O         26.61800       15.97900        4.95000
C         23.65600       14.72200        5.60100
N         25.65800       15.04200        3.14800
C         26.91700       14.69400        2.51600
C         27.76900       15.93200        2.25900
O         28.98900       15.86200        2.34000
C         26.68000       13.93000        1.22500
N         27.13900       17.07000        1.97600
C         27.90200       18.29600        1.71800
C         28.80700       18.69300        2.87800
O         29.85000       19.28600        2.66600
C         26.99200       19.46100        1.32300
C         26.22300       19.24200        0.03200
S         27.22700       18.82300       -1.44000
C         27.19400       17.00300       -1.49700
N         28.41900       18.35500        4.09900
C         29.24300       18.66700        5.26700
C         30.45900       17.73000        5.33000
O         31.50100       18.08400        5.88900
C         28.42100       18.61900        6.59300
C         29.26600       19.07800        7.79400
C         27.16200       19.47500        6.48600
N         30.32200       16.54600        4.73400
C         31.39800       15.55700        4.70800
C         32.71700       16.11600        4.15400
O         33.79800       15.77600        4.65800
C         30.95900       14.32400        3.90700
C         31.89700       13.12600        3.98900
C         31.90400       12.46700        5.37000
O         31.00900       12.76500        6.21300
O         32.81300       11.63900        5.61400
N         32.62000       16.96700        3.13000
C         33.78800       17.59400        2.50700
C         34.87500       17.98200        3.52500
O         36.06700       17.69800        3.32300
C         33.37800       18.85000        1.71700
O         32.26500       18.52000        0.89100
C         34.52000       19.37500        0.84300
N         34.46100       18.60100        4.62400
C         35.40600       19.27200        5.49700
C         36.13500       18.29600        6.40400
O         37.29100       18.54100        6.79700
C         34.72600       20.47400        6.19000
C         34.08600       21.26600        5.10000
C         32.72300       21.15300        4.83400
C         34.88300       22.00000        4.20700
C         32.15500       21.81200        3.75300
C         34.33100       22.66000        3.13200
C         32.97200       22.56400        2.91000
O         32.45300       23.22700        1.84200
N         35.48700       17.16300        6.68300
C         36.16600       16.03900        7.31400
C         37.17000       15.40900        6.33500
O         38.28400       15.06900        6.73600
C         35.16700       15.01100        7.80000
N         36.78500       15.26800        5.06000
C         37.68100       14.67500        4.05500
C         38.93100       15.53700        3.85900
O         40.04900       15.01100        3.85900
C         36.96000       14.37200        2.70400
C         35.95800       13.22300        2.89500
C         37.96500       14.01900        1.58500
C         34.89900       13.11900        1.77700
N         38.73400       16.85200        3.72400
C         39.84300       17.80200        3.60500
C         40.76400       17.75300        4.83400
O         41.99800       17.70800        4.69600
C         39.34100       19.22800        3.34900
C         38.61000       19.49700        2.02700
C         38.13300       20.92500        1.96900
C         39.46900       19.13300        0.78700
N         40.16300       17.73500        6.02400
C         40.90100       17.51800        7.26700
C         41.68000       16.20600        7.26400
O         42.85200       16.17200        7.65700
N         41.03600       15.12800        6.81400
C         41.68400       13.81300        6.69900
C         42.88900       13.82900        5.73500
O         43.95800       13.31100        6.06400
C         40.66200       12.74300        6.28300
C         41.25100       11.37400        6.06900
C         41.60700       10.57700        7.14500
C         41.43600       10.87800        4.78500
C         42.15000        9.31600        6.94900
C         41.98100        9.61300        4.57700
C         42.33900        8.83300        5.66200
N         42.71200       14.43600        4.56300
C         43.76400       14.49400        3.55400
C         45.00200       15.24900        4.08200
O         46.14100       14.76800        3.94700
C         43.23000       15.07600        2.20400
C         44.35500       15.41400        1.25200
C         42.28500       14.09100        1.54500
N         44.77800       16.41200        4.70300
C         45.87200       17.18700        5.28500
C         46.60200       16.38000        6.36800
O         47.82800       16.26200        6.32100
C         45.40100       18.57200        5.79500
C         45.02100       19.47000        4.61200
C         46.47000       19.25900        6.65700
C         46.11300       19.66400        3.55100
N         45.85100       15.80900        7.31500
C         46.42800       14.95000        8.34800
C         47.24100       13.79800        7.74700
O         48.35200       13.51200        8.19900
C         45.33900       14.40600        9.26500
O         44.99700       15.35400       10.27500
N         46.69100       13.16200        6.71100
C         47.35200       12.05400        6.01000
C         48.71900       12.47200        5.45200
O         49.73800       11.81200        5.70400
C         46.45000       11.52700        4.88300
C         46.92200       10.23700        4.28600
C         46.50000        9.01500        4.81200
C         47.79800       10.23300        3.19500
C         46.95200        7.79800        4.26700
C         48.25500        9.02400        2.64300
C         47.82800        7.80600        3.18500
N         48.73200       13.56700        4.69100
C         49.96700       14.10600        4.13500
C         50.98700       14.44100        5.21700
O         52.17300       14.12800        5.07400
C         49.68600       15.34500        3.28100
C         48.95100       15.15200        1.95100
C         48.68200       16.51400        1.34400
C         49.72800       14.26300        0.96600
N         50.52200       15.06800        6.29500
C         51.40300       15.47100        7.37200
C         51.99200       14.28100        8.13200
O         53.15700       14.31600        8.52900
C         50.70100       16.44700        8.31500
C         50.56500       17.87400        7.80100
C         49.74900       18.69400        8.77500
C         51.92200       18.49500        7.56900
N         51.19700       13.23100        8.31900
C         51.66400       12.02800        9.00700
C         52.76800       11.35600        8.20000
O         53.80200       10.97700        8.75600
C         50.51100       11.02000        9.31200
C         51.05300        9.67700        9.77400
C         49.60100       11.57000       10.37300
N         52.55800       11.21600        6.89200
C         53.59100       10.66800        6.01100
C         54.85300       11.51800        5.95900
O         55.92300       11.01300        5.68300
C         53.05900       10.49300        4.59900
C         51.95400        9.45900        4.36300
C         51.75900        9.28300        2.85500
C         52.23700        8.11400        5.05300
N         54.73000       12.80800        6.23300
C         55.86300       13.72200        6.16700
C         56.46200       14.11900        7.54100
O         57.45500       14.86100        7.60700
C         55.45800       14.94400        5.33900
C         56.63300       15.79700        4.93000
C         55.50700       14.67100        3.83800
O         56.85800       16.86700        5.49200
O         56.34300       15.22300        3.12200
N         57.38900       15.33200        3.93900
N         54.62100       13.80300        3.36000
N         55.87600       13.60100        8.62800
C         56.32400       13.90900        9.99400
C         57.77100       13.49300       10.21000
O         58.53600       14.18500       10.90200
C         55.44000       13.23800       11.00900
O         58.20800       12.45500        9.69500
N         62.96800       23.97000       25.25800
C         62.06100       23.64100       24.12200
C         62.25300       24.64400       23.00100
O         62.62200       24.27500       21.87900
C         60.58700       23.61200       24.56000
C         59.57400       23.66200       23.41300
S         59.53900       22.17700       22.38400
C         58.11700       21.33200       23.07700
N         61.99700       25.91000       23.30700
C         62.10500       26.96200       22.31000
C         63.54100       27.04600       21.82100
O         63.80600       27.24200       20.63400
C         61.64500       28.29900       22.88200
C         61.11700       29.28000       21.84900
S         59.87200       28.60100       20.73500
C         60.84500       28.47000       19.22500
N         64.46400       26.86000       22.75200
C         65.87800       26.85200       22.44900
C         66.24100       25.64900       21.57100
O         67.03800       25.76100       20.63300
C         66.66700       26.82800       23.75400
C         68.06600       27.34200       23.58400
O         68.94400       26.57800       23.10100
O         68.28000       28.52300       23.93100
N         65.63800       24.50400       21.88300
C         65.82500       23.27000       21.12400
C         65.30600       23.38600       19.68900
O         66.01800       23.03500       18.74900
C         65.15300       22.10700       21.85400
C         64.92800       20.85900       21.03100
C         65.97500       19.99100       20.74500
C         63.65200       20.52800       20.57100
C         65.76800       18.83600       20.00200
C         63.43100       19.37600       19.82700
C         64.49600       18.53500       19.54200
O         64.27900       17.39800       18.80400
N         64.07600       23.88200       19.52500
C         63.47700       24.05400       18.19700
C         64.34000       24.88400       17.24000
O         64.46600       24.54500       16.06100
C         62.06500       24.64100       18.30100
C         60.98400       23.78800       18.96600
C         59.74200       24.61500       19.25600
C         60.63200       22.59100       18.11800
N         64.92900       25.96300       17.75300
C         65.82000       26.82100       16.96600
C         67.06000       26.06600       16.46300
O         67.45300       26.18700       15.31200
C         66.26300       28.06600       17.77800
C         65.07100       28.98800       18.03000
C         67.39300       28.81100       17.07300
C         65.26600       29.94500       19.18000
N         67.66300       25.26900       17.32500
C         68.94900       24.68500       17.00500
C         68.86600       23.31900       16.32300
O         69.86800       22.83400       15.82800
C         69.82700       24.58800       18.27400
O         69.05600       24.02000       19.33800
C         70.30200       25.96500       18.69900
N         67.68600       22.70400       16.29300
C         67.55400       21.29400       15.87300
C         66.51200       21.06800       14.79400
O         65.85800       20.01100       14.75900
C         67.19100       20.39300       17.06500
C         68.05700       20.56900       18.28800
C         69.50300       20.29900       18.01300
O         70.35500       21.12600       18.32300
N         69.79800       19.14400       17.40900
N         66.33600       22.05800       13.92900
C         65.40100       21.92900       12.82500
C         63.92800       21.85700       13.26400
O         63.10700       21.15100       12.65400
C         65.76900       20.72300       11.94800
C         65.29100       20.88900       10.52700
O         64.56400       20.04200        9.98700
N         65.65200       22.02000        9.92300
N         63.59700       22.59700       14.31700
C         62.23500       22.61200       14.83200
C         61.31000       23.58400       14.12100
O         60.12100       23.62100       14.42000
N         61.85200       24.37000       13.18500
C         61.06900       25.34600       12.42400
C         59.85000       24.72700       11.75800
O         58.77000       25.33800       11.73100
N         60.03400       23.50400       11.23900
C         58.98000       22.72700       10.58800
C         57.72700       22.62800       11.45900
O         56.60500       22.69500       10.94500
C         59.49600       21.35000       10.09400
C         58.55600       20.56500        9.22200
C         59.97900       20.30200       11.11000
S         58.70100       21.12700        7.53200
S         60.92600       18.90800       10.35700
C         60.48400       21.04300        7.26800
C         59.80800       18.28500        9.09200
N         57.91300       22.51500       12.77000
C         56.76700       22.37600       13.68600
C         55.76700       23.53800       13.53000
O         54.54000       23.32600       13.56000
C         57.17900       22.14800       15.18300
C         58.25000       21.06200       15.29400
C         55.96800       21.95300       16.05100
C         57.63500       23.44600       15.85200
C         58.11800       20.95400       15.30400
N         56.28000       24.74900       13.31600
C         55.41200       25.90200       13.08400
C         54.73400       25.86500       11.71100
O         53.58200       26.29100       11.57100
C         56.15800       27.21500       13.33000
C         56.66700       27.34500       14.73400
C         58.02700       27.22300       15.00600
C         55.78200       27.52900       15.79800
C         58.50300       27.31000       16.31600
C         56.25100       27.62000       17.11500
C         57.61700       27.50700       17.37100
N         55.42700       25.33000       10.71100
C         54.84200       25.18500        9.39300
C         53.73000       24.13500        9.41500
O         52.71000       24.27100        8.72300
C         55.88700       24.81300        8.40000
N         53.92200       23.08600       10.21000
C         52.91100       22.04100       10.32500
C         51.69600       22.65200       11.01600
O         50.55300       22.49800       10.56900
C         53.45000       20.80000       11.08200
C         52.34300       19.76100       11.31300
C         54.61600       20.19400       10.30600
N         51.95600       23.37900       12.09400
C         50.89600       24.10800       12.79200
C         50.18800       25.09500       11.86400
O         48.97700       25.28800       11.97900
C         51.47200       24.83700       14.00800
C         50.46600       25.38700       15.01300
C         51.75500       23.93300       15.21100
C         49.67000       24.25900       15.64600
C         52.29500       24.74500       16.36900
C         51.17500       26.21100       16.07600
C         50.50400       23.18500       15.62400
N         50.95100       25.70900       10.94700
C         50.40000       26.61300        9.95100
C         49.34500       25.89000        9.10700
O         48.22500       26.37800        8.92000
C         51.50100       27.15800        9.07300
N         49.70500       24.71000        8.61700
C         48.80700       23.91900        7.78900
C         47.53600       23.53500        8.55400
O         46.41100       23.68300        8.03300
C         49.53500       22.68800        7.27400
C         50.60100       23.04000        6.28700
S         51.45600       21.55700        5.79100
C         50.09700       20.61900        5.07200
N         47.71100       23.06900        9.78800
C         46.57400       22.72400       10.61100
C         45.66000       23.94000       10.81800
O         44.43000       23.82300       10.72900
C         47.02400       22.15700       11.94600
N         46.24600       25.10700       11.07900
C         45.44700       26.31100       11.34500
C         44.61300       26.71700       10.13400
O         43.39100       26.92500       10.25100
C         46.33200       27.46800       11.81700
O         47.50700       27.54300       11.00500
O         47.05200       27.02800       12.96800
C         46.74100       27.26900       13.25200
C         45.52000       28.72200       12.15500
N         45.26700       26.82100        8.97800
C         44.57000       27.11600        7.72800
C         43.38900       26.16000        7.47600
O         42.30700       26.58900        7.08500
C         45.54500       27.05600        6.55800
N         43.61800       24.86500        7.70100
C         42.61900       23.84100        7.43200
C         41.48100       23.86200        8.45000
O         40.31100       23.98700        8.07600
C         43.27600       22.46500        7.38900
O         44.40100       22.52800        6.49400
C         42.28100       21.39100        6.91000
N         41.83700       23.76000        9.73200
C         40.86800       23.67800       10.83700
C         39.84800       24.81900       10.85300
O         38.63700       24.58600       10.76100
C         41.58100       23.53600       12.21800
C         42.29800       22.17800       12.26800
C         40.57700       23.63800       13.38400
C         43.36800       22.04100       13.31600
N         40.32900       26.04800       10.93200
C         39.41400       27.15600       11.14100
C         38.53800       27.49500        9.94100
O         37.35100       27.79200       10.09900
C         40.14900       28.35600       11.73200
C         40.70400       28.07800       13.10000
C         42.04500       27.75500       13.26500
C         39.86400       28.06900       14.21900
C         42.55000       27.47400       14.51600
C         40.36200       27.79300       15.49200
C         41.70600       27.49500       15.64000
N         39.10300       27.41800        8.74500
C         38.31500       27.61900        7.54600
C         37.32600       26.44600        7.39500
O         36.16700       26.64300        6.97700
C         39.21800       27.73600        6.33200
O         39.79600       26.48100        6.04600
N         37.77700       25.23600        7.74200
C         36.91900       24.05800        7.71100
C         35.74700       24.17200        8.67700
O         34.62100       23.80300        8.32700
N         36.00000       24.67100        9.89000
C         34.93200       24.85700       10.88000
C         33.89100       25.86400       10.37500
O         32.67600       25.65300       10.51400
C         35.47600       25.30800       12.26200
C         36.21500       24.16000       12.96500
C         34.34100       25.79900       13.14700
C         37.02300       24.59200       14.16400
N         34.37700       26.95200        9.78200
C         33.51700       27.97000        9.20600
C         32.58500       27.37400        8.17400
O         31.37200       27.62500        8.19600
N         33.14200       26.56900        7.27400
C         32.34500       25.92000        6.25000
C         31.42400       24.87400        6.84300
O         30.25600       24.82400        6.47600
C         33.22900       25.31400        5.17800
O         33.66400       26.32300        4.29600
N         31.92700       24.04200        7.75600
C         31.08000       23.01100        8.35800
C         29.85300       23.66700        8.99300
O         28.72800       23.24100        8.76000
C         31.85500       22.15500        9.37700
N         30.07600       24.73600        9.75300
C         28.98400       25.44300       10.39700
C         28.03300       26.11700        9.41000
O         26.81800       25.93400        9.50000
C         29.51800       26.45300       11.41100
C         29.82600       25.81300       12.73300
C         30.52300       26.77900       13.63100
C         30.58300       26.22100       15.03800
N         29.21800       26.17100       15.63700
N         28.58000       26.88800        8.47600
C         27.77000       27.57400        7.46300
C         27.01000       26.60900        6.55900
O         25.79600       26.76200        6.38000
N         27.72200       25.62400        5.99400
C         27.11500       24.59200        5.16700
C         26.09400       23.79200        5.98800
O         25.02000       23.42100        5.47800
C         28.18200       23.64100        4.52700
C         27.53000       22.43600        3.82000
C         29.05700       24.39800        3.56600
N         26.43400       23.53800        7.25400
C         25.54500       22.81600        8.16500
C         24.24800       23.57400        8.40300
O         23.14500       23.01600        8.27400
N         24.37300       24.85500        8.72900
C         23.20200       25.65400        8.99400
C         22.29800       25.75700        7.77500
O         21.07600       25.59500        7.89200
C         23.57900       27.04500        9.47700
C         22.37100       27.93400        9.69800
S         22.86900       29.57700       10.18600
C         23.12800       29.34700       11.96400
N         22.89500       26.02900        6.61800
C         22.13800       26.14100        5.37500
C         21.45000       24.81300        5.03300
O         20.26400       24.80200        4.69600
C         23.02400       26.63100        4.21800
O         23.69600       27.83200        4.61700
C         22.19000       26.92500        2.99200
N         22.18300       23.70600        5.15300
C         21.61100       22.37600        5.00200
C         20.38500       22.10300        5.87800
O         19.41000       21.49700        5.42000
N         20.42200       22.54200        7.13800
C         19.25700       22.41400        8.02700
C         18.03500       23.11800        7.42600
O         16.95300       22.52200        7.33000
C         19.57000       22.95000        9.42900
C         20.59300       22.11100       10.18200
C         21.00800       22.72300       11.52000
O         20.15300       22.80200       12.42700
O         22.19500       23.10900       11.67800
N         18.22500       24.37100        7.00300
C         17.16100       25.16600        6.38800
C         16.68500       24.52800        5.08300
O         15.47900       24.44700        4.83300
C         17.61900       26.60200        6.16800
N         17.63700       24.06000        4.26900
C         17.33700       23.39200        2.99000
C         16.51600       22.12300        3.20500
O         15.51000       21.91000        2.51900
C         18.60500       23.09700        2.22700
N         16.92500       21.30200        4.17600
C         16.14800       20.11000        4.57300
C         14.75000       20.46200        5.04200
O         13.80700       19.77900        4.65500
C         16.86000       19.29700        5.62000
N         14.60400       21.52400        5.84400
C         13.26200       21.95700        6.30000
C         12.36200       22.25800        5.09400
O         11.23000       21.76300        5.01700
C         13.33700       23.15700        7.24200
N         12.90400       23.02700        4.14300
C         12.19600       23.38900        2.92100
C         11.80600       22.15900        2.08500
O         10.67100       22.04900        1.59400
C         13.02300       24.36500        2.08400
C         12.39900       24.75800        0.73600
C         11.05700       25.46000        0.89100
C         13.37300       25.59300       -0.09000
N         12.74400       21.23100        1.94100
C         12.50200       20.01200        1.17800
C         11.36000       19.13200        1.73900
O         10.72300       18.39200        0.98800
C         13.81000       19.19700        1.04000
O         14.83400       20.02500        0.48200
C         13.62500       17.99400        0.13500
N         11.09200       19.20500        3.04400
C          9.99900       18.40900        3.62300
C          8.64000       18.77400        3.00600
O          7.73200       17.94300        2.99800
C          9.90500       18.53800        5.14800
O          9.41700       19.84500        5.46700
C         11.26500       18.29500        5.81500
N          8.49900       20.00200        2.49200
C          7.25000       20.39800        1.83400
C          7.40300       20.66000        0.33700
O          6.49200       20.38600       -0.42200
C          6.59500       21.60000        2.53200
O          7.12200       22.84500        2.07800
N          8.54200       21.20300       -0.08800
C          8.74700       21.58400       -1.50000
C         10.07400       21.06300       -2.08700
O         11.00800       21.84300       -2.28600
C          8.71100       23.10800       -1.67700
C          7.46000       23.81400       -1.19600
C          7.67300       25.31400       -1.09200
O          7.79200       25.98600       -2.09900
N          7.72900       25.84100        0.13900
N         10.15300       19.75500       -2.41100
C         11.41900       19.16300       -2.85100
C         11.81300       19.51000       -4.29300
O         12.90600       19.17200       -4.73800
C         11.15300       17.66600       -2.71900
C          9.71000       17.52700       -2.94100
C          9.06800       18.75600       -2.38200
N         10.92900       20.17600       -5.02100
C         11.20500       20.53400       -6.41600
C         12.15200       21.73100       -6.50100
O         12.48800       22.18100       -7.59300
C          9.89500       20.80100       -7.17900
C          9.29100       22.19300       -6.98600
C          8.62200       22.43100       -5.61000
O          8.50400       21.50400       -4.75800
O          8.19900       23.58700       -5.38700
N         12.57400       22.24000       -5.34600
C         13.46800       23.39500       -5.28100
C         14.87100       22.97800       -4.83500
O         15.71400       23.81600       -4.48000
C         12.89200       24.44300       -4.33300
C         11.55200       24.94600       -4.77100
C         10.93700       25.84100       -3.74600
C          9.73000       26.53400       -4.34000
N          9.15600       27.49900       -3.37100
N         15.11200       21.67300       -4.88600
C         16.30600       21.06800       -4.35500
C         17.59300       21.62200       -4.95400
O         18.50000       21.98900       -4.19800
C         16.22200       19.55500       -4.51600
C         17.47300       18.83300       -4.14900
C         17.91300       18.80000       -2.82000
C         18.21300       18.17300       -5.12800
C         19.08000       18.13000       -2.47000
C         19.38700       17.49900       -4.79500
C         19.82300       17.47600       -3.46700
N         17.67600       21.70300       -6.28200
C         18.87500       22.21500       -6.94800
C         19.24700       23.62700       -6.51200
O         20.42500       23.96900       -6.34400
N         18.23900       24.45800       -6.30500
C         18.47600       25.81300       -5.84000
C         18.95000       25.82800       -4.38700
O         19.89100       26.56200       -4.03800
C         17.21500       26.64100       -6.01300
C         16.79700       26.76300       -7.45600
C         17.75900       27.63600       -8.20100
O         17.74200       28.85600       -8.04500
N         18.63900       27.02300       -8.99000
N         18.30400       25.00800       -3.55200
C         18.67300       24.89800       -2.15500
C         20.12100       24.41800       -2.06100
O         20.91100       24.91900       -1.25200
C         17.73800       23.94700       -1.43400
N         20.46900       23.45700       -2.91300
C         21.80000       22.87600       -2.91300
C         22.86800       23.91500       -3.27100
O         23.92300       23.97200       -2.62400
C         21.85700       21.68100       -3.86700
C         23.00200       20.67900       -3.69300
C         23.22600       20.30800       -2.21700
C         22.74200       19.43400       -4.55000
N         22.60100       24.73100       -4.30000
C         23.51300       25.81600       -4.68100
C         23.73800       26.76100       -3.51600
O         24.88400       27.14200       -3.26100
C         23.00700       26.62300       -5.89300
C         23.15700       25.81400       -7.16900
C         23.78600       27.94000       -6.06800
C         22.26000       26.33300       -8.26000
N         22.65800       27.13500       -2.81700
C         22.75600       28.01100       -1.64800
C         23.58700       27.36200       -0.56000
O         24.39700       28.03800        0.07700
C         21.37900       28.40500       -1.10100
C         20.59200       29.48800       -1.83500
C         19.16500       29.49500       -1.39200
C         21.20800       30.83900       -1.60300
N         23.40900       26.05400       -0.35300
C         24.18700       25.33800        0.66100
C         25.69500       25.28700        0.34000
O         26.51700       25.21500        1.24600
C         23.62800       23.93800        0.90400
C         24.17200       23.28100        2.15900
C         24.00700       21.76700        2.17500
O         23.59300       21.16400        1.18600
N         24.33500       21.14700        3.30200
N         26.05700       25.35200       -0.93700
C         27.46200       25.30400       -1.33500
C         28.20800       26.60500       -1.11300
O         29.41300       26.59200       -0.92500
C         27.61600       24.86100       -2.79400
C         27.16200       23.43200       -3.12800
C         27.41400       23.11100       -4.62000
C         27.77600       22.36900       -2.16700
N         27.51000       27.73000       -1.13500
C         28.16400       29.03000       -0.94100
C         29.07700       29.12100        0.30700
O         30.25200       29.48000        0.17400
C         27.13400       30.17000       -0.98700
C         26.77900       30.89900       -2.30900
C         27.09500       30.12100       -3.59100
C         25.32000       31.28500       -2.29100
N         28.57100       28.75400        1.51600
C         29.48000       28.82100        2.67600
C         30.55600       27.72000        2.64500
O         31.43900       27.68500        3.52400
C         28.55300       28.61000        3.87800
C         27.18300       28.56700        3.34800
C         27.24100       28.24600        1.90500
N         30.48100       26.84300        1.64200
C         31.37700       25.73200        1.54600
C         32.73300       26.05400        0.96300
O         33.62600       25.21400        1.01600
N         32.89700       27.24500        0.39000
C         34.14200       27.59400       -0.31500
C         35.29700       27.92600        0.65000
O         36.48500       27.67800        0.34600
C         33.94100       28.77400       -1.27900
O         33.36000       29.86800       -0.55900
C         33.02200       28.40000       -2.42300
N         34.93800       28.48800        1.80500
C         35.90000       28.86700        2.84100
C         36.88300       27.74200        3.17400
O         38.10000       27.95300        3.15000
C         35.16600       29.30400        4.11400
C         34.71500       30.76100        4.12600
C         33.44300       31.01500        3.32100
O         33.02000       30.18600        2.50900
N         32.83500       32.17800        3.53400
N         36.35300       26.55400        3.47200
C         37.17100       25.39100        3.81300
C         38.06600       24.92100        2.68300
O         39.15800       24.40000        2.93900
N         37.62200       25.10800        1.43300
C         38.46400       24.77800        0.27100
C         39.61700       25.75700        0.14500
O         40.74000       25.33600       -0.13000
C         37.66700       24.72900       -1.03300
C         36.58700       23.65400       -1.13900
C         35.63800       23.99600       -2.27600
C         37.22800       22.29700       -1.34000
N         39.35600       27.05400        0.34800
C         40.44500       28.03800        0.38000
C         41.52400       27.64700        1.39500
O         42.73000       27.60700        1.05200
C         39.94400       29.43600        0.70500
C         38.96200       30.01900       -0.27900
C         37.88800       30.79000        0.17200
C         39.11100       29.83000       -1.65500
C         36.99300       31.34600       -0.70500
C         38.20900       30.37100       -2.54600
C         37.15400       31.13000       -2.05900
O         36.25200       31.68400       -2.92400
N         41.09100       27.35000        2.62700
C         41.99500       26.92700        3.68900
C         42.83700       25.72100        3.30600
O         44.06000       25.69200        3.53500
N         42.17400       24.72400        2.71800
C         42.83400       23.52100        2.25300
C         43.91100       23.87200        1.21700
O         45.05200       23.38800        1.31400
C         41.81200       22.53300        1.69100
C         42.43200       21.28800        1.09000
C         42.76200       20.19300        1.89800
C         42.69200       21.20800       -0.28600
C         43.33100       19.02900        1.34300
C         43.25600       20.06600       -0.83800
C         43.57400       18.96900       -0.02200
N         43.55500       24.71200        0.23900
C         44.50700       25.12900       -0.79900
C         45.72900       25.82000       -0.14900
O         46.87400       25.47400       -0.44800
C         43.83500       25.99700       -1.90500
C         44.88200       26.66400       -2.80300
C         42.84800       25.15100       -2.72600
N         45.48400       26.74300        0.78100
C         46.57800       27.38100        1.51600
C         47.42700       26.36900        2.27500
O         48.66100       26.45200        2.25200
C         46.07400       28.48600        2.46700
C         45.60000       29.70400        1.65700
C         47.14900       28.86500        3.48400
C         46.62900       30.27100        0.65700
N         46.78700       25.40400        2.92900
C         47.53000       24.33600        3.60100
C         48.42700       23.54100        2.62700
O         49.60400       23.26600        2.91200
C         46.57600       23.41500        4.31400
N         47.86000       23.19300        1.47400
C         48.57600       22.44600        0.45700
C         49.74500       23.25600       -0.14200
O         50.82100       22.70000       -0.45000
C         47.60400       21.96300       -0.62800
C         48.21800       20.99500       -1.58100
C         48.37700       19.66000       -1.21700
C         48.69600       21.42600       -2.83200
C         48.99200       18.74900       -2.09500
C         49.30100       20.52700       -3.71900
C         49.44700       19.18600       -3.34900
N         49.53400       24.56300       -0.29000
C         50.57800       25.46200       -0.78500
C         51.75300       25.56800        0.20300
O         52.92200       25.62100       -0.20700
C         49.99300       26.83900       -1.07600
C         50.79300       27.74900       -1.98900
C         49.13000       26.97600       -2.33500
C         50.75600       27.22800       -3.41700
C         48.19500       28.15000       -2.19100
C         50.21000       29.14100       -1.89200
C         49.97000       27.09900       -3.59800
N         51.44400       25.58400        1.49800
C         52.49300       25.48900        2.49700
C         53.17400       24.11600        2.37200
O         54.40100       24.01000        2.37300
C         51.96300       25.72700        3.93900
C         51.41000       27.14900        4.08100
C         53.07300       25.47200        4.97800
C         50.53700       27.35400        5.30500
N         52.37400       23.06800        2.24400
C         52.90700       21.71200        2.23300
C         53.96700       21.50600        1.15400
O         55.05100       21.00900        1.42900
C         51.77700       20.69800        2.06100
C         52.24700       19.27200        2.00300
C         52.69100       18.62300        3.15700
C         52.24400       18.56400        0.78800
C         53.13900       17.29700        3.10800
C         52.67800       17.23500        0.73600
C         53.12700       16.60400        1.90300
N         53.64300       21.88600       -0.07500
C         54.56700       21.68900       -1.18400
C         55.77700       22.60400       -1.07900
O         56.61400       22.61500       -1.96300
C         53.88000       21.82000       -2.56300
C         53.46600       23.26800       -2.85000
C         52.69100       20.84500       -2.65600
C         52.79100       23.44600       -4.20100
N         55.86800       23.34700        0.01900
C         56.97900       24.25000        0.27300
C         57.73800       23.92100        1.54800
O         58.59100       24.69000        1.97800
C         56.48000       25.68400        0.34900
C         56.34000       26.30800       -1.00400
O         55.34600       26.10000       -1.70500
N         57.34600       27.08100       -1.39800
N         57.42100       22.78800        2.16200
C         58.05100       22.40400        3.41000
C         59.56900       22.19000        3.27000
O         60.36800       22.86500        3.96000
C         57.36600       21.17400        3.99900
C         55.99200       21.43200        4.60800
C         55.39600       20.15900        5.15300
C         56.08800       22.45800        5.71800
N         59.98000       21.28300        2.38300
C         61.38200       20.89100        2.31800
C         61.78600       20.12400        3.57000
O         60.95300       19.84600        4.43000
N         63.06800       19.78900        3.68900
C         63.54400       18.94500        4.79300
C         64.11200       19.71800        6.00500
O         64.19100       19.17000        7.11200
C         64.58300       17.96300        4.26800
O         65.49000       18.64600        3.42400
N         64.52300       20.97000        5.78400
C         65.05900       21.82000        6.84700
C         64.26300       23.12700        6.89400
O         63.79300       23.58500        5.86500
C         66.55300       22.07800        6.60300
C         67.07200       23.30800        7.33800
O         66.78200       24.44300        6.90200
O         67.78100       23.14800        8.35200
N         64.10200       23.72600        8.06800
C         63.41000       25.00900        8.16600
C         63.82600       25.77600        9.41200
O         63.89800       25.21000       10.51200
C         61.89400       24.80500        8.16600
C         61.10100       26.02600        7.73500
S         59.31000       25.75400        7.74400
C         59.06200       24.91300        6.17100
N         64.10000       27.06400        9.24100
C         64.38400       27.93500       10.37200
C         63.10100       28.24200       11.14400
O         61.99400       28.11500       10.61300
C         65.04000       29.23100        9.90000
O         64.10700       30.07000        9.24700
N         63.25100       28.65000       12.39700
C         62.10000       29.06200       13.19000
C         61.47300       30.34300       12.60000
O         60.24600       30.46100       12.51000
C         62.42800       29.17900       14.71300
C         61.34000       29.93500       15.44500
C         62.62000       27.78400       15.32700
N         62.30800       31.27900       12.16200
C         61.80700       32.48100       11.49500
C         60.87200       32.10700       10.32500
O         59.75100       32.64500       10.20400
C         62.96700       33.42100       11.01500
C         62.45800       34.49200       10.09800
C         63.66400       34.06900       12.19900
N         61.31700       31.17300        9.48200
C         60.48400       30.74400        8.36300
C         59.21200       29.99700        8.79400
O         58.11900       30.27400        8.26900
C         61.26400       29.92700        7.35000
C         60.47600       29.74700        6.05900
C         61.21900       28.96700        5.00200
O         62.21300       28.30200        5.28600
N         60.74300       29.04400        3.77400
N         59.35600       29.05200        9.73100
C         58.20500       28.36700       10.30800
C         57.16100       29.36600       10.81100
O         55.96400       29.26200       10.48100
N         57.61400       30.35000       11.59400
C         56.72400       31.38000       12.10800
C         56.07100       32.19600       10.99500
O         54.89000       32.53800       11.10100
C         57.43700       32.28700       13.10300
C         57.79900       31.65200       14.44900
C         58.66900       32.62300       15.21600
C         56.56400       31.19400       15.26400
N         56.81200       32.48600        9.92300
C         56.21800       33.15100        8.75900
C         55.05700       32.35600        8.17500
O         54.00000       32.92100        7.86200
C         57.25100       33.45100        7.66900
C         58.15400       34.63000        8.01800
O         57.81000       35.47500        8.85700
N         59.32000       34.68600        7.38200
N         55.23900       31.04500        8.04400
C         54.15900       30.18700        7.56200
C         52.96800       30.22700        8.52700
O         51.80900       30.30900        8.09000
C         54.62700       28.74400        7.36000
C         55.39900       28.52100        6.08100
C         56.70700       28.06100        6.11900
C         54.80700       28.75500        4.82900
C         57.42600       27.85300        4.92700
C         55.51400       28.54300        3.64300
C         56.82500       28.09100        3.68900
N         53.24600       30.18200        9.83300
C         52.17700       30.24100       10.82100
C         51.38300       31.53100       10.62900
O         50.14800       31.50200       10.57500
C         52.72200       30.11400       12.24900
C         51.71000       30.01300       13.39100
C         50.58900       29.02900       13.06200
C         52.41300       29.60400       14.66700
N         52.09800       32.64800       10.49700
C         51.46400       33.94800       10.28800
C         50.64800       33.96400        9.01100
O         49.48800       34.38900        9.00100
N         51.26500       33.47300        7.93900
C         50.61600       33.31000        6.63300
C         49.25800       32.59900        6.69500
O         48.34600       32.91900        5.91300
C         51.52800       32.57000        5.69800
N         49.11800       31.64000        7.61100
C         47.91100       30.82300        7.66400
C         46.73900       31.53400        8.35300
O         45.57800       31.19100        8.13500
C         48.19600       29.49400        8.34800
O         48.28400       29.67900        9.74000
N         47.04100       32.53000        9.17300
C         46.01500       33.16200        9.99900
C         44.89100       33.84300        9.21000
O         43.71000       33.61900        9.51100
C         46.65000       34.12400       10.99800
C         47.65200       33.48600       11.95500
C         48.13300       34.56900       12.88300
C         47.04700       32.35400       12.75700
N         45.24500       34.67100        8.20100
C         44.16900       35.33500        7.45700
C         43.06300       34.39600        6.93900
O         41.88800       34.61200        7.27600
C         44.91900       36.04600        6.32600
C         46.27300       36.32900        6.93700
C         46.57400       35.07900        7.69600
N         43.41300       33.36800        6.16500
C         42.38700       32.43800        5.67100
C         41.72300       31.65800        6.81400
O         40.53000       31.41700        6.77800
C         42.89300       31.48600        4.53600
C         41.71700       30.82000        3.81200
C         43.84000       30.41800        5.08000
C         40.56300       31.76600        3.46100
N         42.49600       31.28600        7.82700
C         41.95200       30.58400        8.99500
C         40.78200       31.33700        9.62300
O         39.71300       30.76100        9.84200
C         43.04200       30.32600       10.05700
N         40.97600       32.62400        9.89600
C         39.97000       33.35600       10.65900
C         38.92700       34.15700        9.87500
O         37.79300       34.25300       10.33100
C         40.61500       34.13000       11.80300
C         41.23100       33.22900       12.81700
C         42.59400       32.95100       12.78300
C         40.43300       32.58400       13.75600
C         43.16200       32.06700       13.71700
C         40.98100       31.69800       14.68300
C         42.34900       31.43700       14.67000
N         39.27600       34.68800        8.70200
C         38.24300       35.19000        7.79400
C         37.39800       34.00500        7.30700
O         36.18300       34.12300        7.17200
C         38.80000       35.98900        6.58800
O         39.64900       35.15400        5.80000
C         39.58500       37.20100        7.05500
N         38.04200       32.85900        7.07600
C         37.34100       31.62500        6.69100
C         36.29100       31.24500        7.73000
O         35.10500       31.04000        7.38000
N         36.72600       31.18700        9.00200
C         35.85900       30.85200       10.12400
C         34.63600       31.76600       10.18700
O         33.49200       31.31000       10.10300
C         36.62100       30.94700       11.45300
C         35.81600       30.68600       12.73700
C         35.10300       29.32400       12.71100
C         36.71500       30.78800       13.92900
N         34.88900       33.05700       10.33900
C         33.81900       34.00100       10.54800
C         32.96500       34.27000        9.29600
O         31.72600       34.34700        9.40600
C         34.36300       35.28200       11.18100
C         34.84400       35.08500       12.57600
C         36.16300       34.73200       12.82900
C         33.97400       35.21700       13.64800
C         36.61400       34.53400       14.14000
C         34.41400       35.01700       14.96000
C         35.72600       34.67500       15.20200
N         33.58700       34.39200        8.12200
C         32.78200       34.58800        6.91700
C         31.94100       33.34800        6.62600
O         30.76700       33.46800        6.31100
C         33.60200       35.03200        5.70300
O         34.47700       34.02000        5.28800
N         32.52200       32.16200        6.78100
C         31.75700       30.91700        6.65300
C         30.46500       30.90100        7.47400
O         29.37700       30.62700        6.94700
N         30.58000       31.19700        8.77100
C         29.41400       31.34100        9.64600
C         28.45300       32.44600        9.14900
O         27.25000       32.19000        8.97400
C         29.83500       31.56700       11.10400
C         30.48200       30.29000       11.65000
C         28.64400       31.96600       11.96000
C         31.34800       30.49800       12.85900
N         28.98400       33.64900        8.89100
C         28.16800       34.77900        8.43100
C         27.47400       34.49500        7.10100
O         26.29200       34.82300        6.92600
C         29.00100       36.04100        8.34500
N         28.19900       33.86700        6.17600
C         27.64200       33.51100        4.86900
C         26.53000       32.46000        4.97100
O         25.51800       32.53700        4.25800
C         28.73300       33.02100        3.94400
C         28.33600       33.00300        2.49600
C         29.51600       32.72700        1.60200
O         30.38400       31.88800        1.91400
N         29.57000       33.43400        0.48000
N         26.72200       31.49200        5.86800
C         25.73300       30.45700        6.11300
C         24.41100       31.03000        6.58200
O         23.34600       30.56000        6.15400
N         24.46900       32.03700        7.45300
C         23.25500       32.73700        7.89900
C         22.52600       33.41800        6.73900
O         21.30400       33.36600        6.68000
C         23.54700       33.76500        8.99200
C         23.88600       33.15700       10.32200
C         24.52200       34.17100       11.23800
C         24.72800       33.56800       12.60800
N         25.68600       34.34300       13.47000
N         23.26200       34.04700        5.82200
C         22.62200       34.70500        4.66300
C         22.07100       33.63200        3.71000
O         20.93600       33.74600        3.20300
C         23.56600       35.70800        3.90300
C         22.79600       36.52500        2.91700
C         24.24400       36.65000        4.85900
N         22.85800       32.58200        3.48100
C         22.39400       31.50500        2.61700
C         21.10800       30.89900        3.19800
O         20.10800       30.74000        2.48300
C         23.48000       30.44400        2.40400
N         21.12800       30.60100        4.49700
C         19.92600       30.14700        5.20200
C         18.72000       31.06300        4.95600
O         17.61900       30.58300        4.66600
C         20.19800       30.02600        6.68800
N         18.93100       32.37600        5.06500
C         17.86900       33.34100        4.81100
C         17.44000       33.28300        3.33700
O         16.25000       33.42900        3.02900
C         18.29400       34.72300        5.20600
N         18.39900       33.03200        2.44300
C         18.10300       32.82100        1.02800
C         17.09700       31.70500        0.76900
O         16.22000       31.83100       -0.11200
N         17.21000       30.61400        1.53000
C         16.23800       29.51000        1.46800
C         14.77100       29.99200        1.52500
O         13.91300       29.45400        0.81900
C         16.52000       28.42400        2.56900
C         17.87600       27.73700        2.33700
C         15.40100       27.38900        2.65100
C         17.98500       26.87600        1.08000
N         14.49700       31.00800        2.34600
C         13.13600       31.54500        2.47900
C         12.71500       32.35000        1.24400
O         11.52100       32.41800        0.94000
C         12.95700       32.38100        3.76700
C         13.69600       31.85800        5.02300
C         12.44700       31.61500        4.98200
C         13.51300       30.35800        5.29500
C         11.06700       31.00700        4.77400
O         12.42900       29.80900        5.12600
O         10.05100       31.70900        4.68200
N         14.58800       29.69900        5.72500
N         11.02600       29.68500        4.71500
N         13.67700       32.95900        0.54000
C         13.36500       33.58200       -0.74600
C         12.91900       32.46500       -1.69400
O         11.89700       32.56800       -2.37400
C         14.55800       34.35500       -1.35900
C         14.94900       35.53900       -0.47600
C         14.21500       34.85300       -2.76400
C         16.25000       36.20800       -0.88100
N         13.69700       31.39200       -1.71400
C         13.40600       30.22900       -2.51800
C         12.02900       29.66600       -2.18200
O         11.27000       29.32500       -3.07800
C         14.49600       29.19500       -2.27100
C         14.60700       27.97700       -3.16400
C         14.59300       28.37500       -4.63100
C         15.89300       27.26400       -2.78500
N         11.70900       29.60300       -0.89200
C         10.41900       29.10200       -0.41400
C          9.24600       29.94600       -0.93200
O          8.26900       29.39900       -1.45100
C         10.40700       29.03500        1.11700
N          9.36800       31.27000       -0.82200
C          8.27100       32.19500       -1.10900
C          8.25600       32.75000       -2.52500
O          7.19000       32.99000       -3.08100
C          8.31100       33.35400       -0.12600
C          8.02400       32.95200        1.30700
C          6.53300       32.84400        1.52700
C          6.17500       32.96800        2.99900
N          6.66800       31.77000        3.72700
N          9.44000       32.96700       -3.09000
C          9.58100       33.57800       -4.39100
C         10.65200       32.84900       -5.17500
O         11.70000       33.42900       -5.45000
C          9.97600       35.05000       -4.24000
C          9.00400       35.92200       -3.45600
C          7.88800       36.42700       -4.31200
C          7.03000       37.41800       -3.57100
N          5.90500       37.82600       -4.45400
N         10.38500       31.58000       -5.56500
C         11.43600       30.75500       -6.18600
C         11.99100       31.38300       -7.46000
O         13.11600       31.11000       -7.84200
C         10.72200       29.42900       -6.49100
C          9.27500       29.76400       -6.51900
C          9.10000       30.85600       -5.49800
N         11.20500       32.23700       -8.09700
C         11.62900       32.85000       -9.35100
C         12.67400       33.94100       -9.12500
O         13.25800       34.44500      -10.07800
C         10.42700       33.35000      -10.14600
C          9.48100       32.22500      -10.52000
C          8.29000       32.68900      -11.34700
O          8.21700       33.87900      -11.69700
O          7.41500       31.85800      -11.65800
N         12.92700       34.26100       -7.85900
C         13.88300       35.29000       -7.47500
C         15.06800       34.71000       -6.70800
O         15.81400       35.44500       -6.05200
C         13.18100       36.35000       -6.62700
C         12.22800       37.20300       -7.40400
N         12.64400       38.25000       -8.20200
C         10.88000       37.17300       -7.50400
C         11.59600       38.82200       -8.76400
N         10.51200       38.18900       -8.35600
N         15.25000       33.39600       -6.81700
C         16.30200       32.68400       -6.09200
C         17.72000       33.23500       -6.31000
O         18.50300       33.28900       -5.36400
C         16.24300       31.18900       -6.39200
N         18.04500       33.65500       -7.53000
C         19.32300       34.32000       -7.78500
C         19.61700       35.45200       -6.78100
O         20.77000       35.64400       -6.36100
C         19.38100       34.85500       -9.22000
O         19.14300       33.76600      -10.10400
C         20.74900       35.47300       -9.55600
N         18.58300       36.19200       -6.39400
C         18.76700       37.28300       -5.45700
C         19.37400       36.79500       -4.12400
O         20.33000       37.38800       -3.60200
C         17.45400       38.03200       -5.24500
C         17.02800       38.81800       -6.44900
C         15.68500       39.50100       -6.21800
C         15.27900       40.38600       -7.37600
N         15.25000       39.61900       -8.64300
N         18.82900       35.70000       -3.59900
C         19.39100       35.04500       -2.41300
C         20.85000       34.63700       -2.58600
O         21.66300       34.83100       -1.68200
N         21.19000       34.08300       -3.74900
C         22.58000       33.75300       -4.04800
C         23.48200       34.99400       -3.98500
O         24.53200       34.96600       -3.34100
C         22.72200       33.03300       -5.40800
C         22.05900       31.65500       -5.33600
C         24.19300       32.91600       -5.82200
C         21.78300       31.02900       -6.70900
N         23.06500       36.07600       -4.63700
C         23.85700       37.30200       -4.64600
C         24.07500       37.88000       -3.23600
O         25.20800       38.24700       -2.89500
C         23.27900       38.34400       -5.61100
C         23.46100       37.84800       -7.04500
C         23.94100       39.71600       -5.40200
C         22.60600       38.56300       -8.07200
N         23.01700       37.94300       -2.42000
C         23.14900       38.40000       -1.02700
C         24.21200       37.57800       -0.28400
O         25.07300       38.12200        0.39300
C         21.82700       38.28900       -0.25500
C         20.77800       39.27600       -0.66400
C         19.44100       38.88300       -0.74900
C         21.10000       40.60100       -0.93900
C         18.44700       39.79700       -1.10700
C         20.10900       41.51900       -1.29500
C         18.78100       41.11200       -1.37800
N         24.13300       36.26100       -0.40700
C         25.09900       35.38400        0.21900
C         26.50800       35.56800       -0.38800
O         27.51400       35.57800        0.34300
C         24.64000       33.95100        0.09600
N         26.57100       35.72600       -1.71200
C         27.83800       35.90000       -2.41200
C         28.61000       37.10200       -1.87900
O         29.83300       37.08200       -1.88700
C         27.62000       36.02000       -3.92500
N         27.90500       38.13400       -1.40200
C         28.56800       39.35500       -0.94100
C         29.47700       39.09800        0.24100
O         30.44600       39.81300        0.43100
C         27.56700       40.44600       -0.59000
C         26.72600       40.92500       -1.75700
S         27.63000       41.57200       -3.19700
C         27.82500       40.11300       -4.24600
N         29.16900       38.06900        1.02300
C         29.96700       37.72900        2.18800
C         31.25800       37.04300        1.74800
O         32.27400       37.12600        2.43300
C         29.16200       36.84700        3.17500
C         29.97300       36.53200        4.43200
C         27.84100       37.54000        3.54200
N         31.20900       36.38800        0.58700
C         32.34900       35.67600       -0.00300
C         33.61100       36.53700       -0.08000
O         34.71900       36.02300        0.12300
C         31.99100       35.15700       -1.40800
C         32.97600       34.15500       -2.03100
C         33.06300       32.81100       -1.26700
O         32.19900       32.51100       -0.39900
O         34.01200       32.03800       -1.53400
N         33.43800       37.83600       -0.36300
C         34.55900       38.78400       -0.49900
C         35.62300       38.63800        0.59500
O         36.83100       38.69700        0.33500
C         34.06000       40.24700       -0.51100
O         32.92200       40.33500       -1.37100
C         35.14700       41.20900       -1.00400
N         35.16800       38.42200        1.81500
C         36.06400       38.51100        2.94400
C         36.89200       37.25500        3.09000
O         38.06700       37.31900        3.47300
C         35.29500       39.01500        4.18500
C         34.57200       40.24800        3.72600
C         33.22300       40.19700        3.39100
C         35.28400       41.42800        3.45600
C         32.58100       41.30800        2.87500
C         34.66000       42.52600        2.94400
C         33.30300       42.46400        2.65200
O         32.66200       43.56200        2.13600
N         36.30800       36.12600        2.69400
C         37.06800       34.89500        2.54100
C         38.12500       35.04400        1.42900
O         39.28100       34.70300        1.64400
C         36.14000       33.71200        2.26700
N         37.73000       35.55800        0.25800
C         38.64800       35.76500       -0.86300
C         39.80700       36.68700       -0.46900
O         40.98100       36.34800       -0.72900
C         37.91800       36.26700       -2.13600
C         36.99500       35.16400       -2.67200
C         38.92200       36.68700       -3.21500
C         35.93100       35.64700       -3.64200
N         39.49500       37.82300        0.17500
C         40.54000       38.73600        0.65600
C         41.47900       38.04300        1.64700
O         42.70500       38.20800        1.56600
C         39.96800       40.01400        1.26500
C         39.22900       40.99400        0.34500
C         38.70400       42.20600        1.12900
C         40.06500       41.43700       -0.88100
N         40.90900       37.25300        2.56000
C         41.71000       36.43300        3.48000
C         42.61100       35.44600        2.75000
O         43.79200       35.28000        3.09000
N         42.05300       34.80100        1.73200
C         42.78500       33.85600        0.90600
C         43.93300       34.54200        0.15100
O         45.04800       34.01700        0.12200
C         41.83400       33.14700       -0.06600
C         42.52800       32.21700       -1.03100
C         42.93600       30.94500       -0.62100
C         42.77300       32.61600       -2.36300
C         43.57400       30.07400       -1.50300
C         43.42500       31.76400       -3.26700
C         43.82600       30.48100       -2.83300
N         43.66300       35.69600       -0.46500
C         44.69200       36.39100       -1.24800
C         45.90100       36.78900       -0.36200
O         47.05100       36.60200       -0.75600
C         44.11100       37.61800       -2.04200
C         45.22400       38.50100       -2.61500
C         43.18700       37.14800       -3.15900
N         45.62800       37.31900        0.82900
C         46.67500       37.70900        1.76200
C         47.44100       36.47800        2.21000
O         48.67400       36.49700        2.21900
C         46.11400       38.50600        2.99800
C         45.63100       39.90400        2.57800
C         47.16800       38.62700        4.12100
C         46.69900       40.78300        1.90300
N         46.72300       35.41200        2.57100
C         47.37900       34.15100        2.93800
C         48.28600       33.65700        1.81900
O         49.42100       33.27100        2.05900
C         46.36000       33.07700        3.31200
O         46.03200       33.18400        4.68200
N         47.77700       33.69500        0.59600
C         48.51200       33.24100       -0.57400
C         49.83900       33.99400       -0.74600
O         50.90900       33.37800       -0.91400
C         47.63900       33.39300       -1.82600
C         48.20200       32.72800       -3.02900
C         47.83300       31.43000       -3.34600
C         49.11800       33.38700       -3.84000
C         48.37800       30.78300       -4.46700
C         49.66300       32.75900       -4.95900
C         49.29400       31.45100       -5.27100
N         49.75300       35.32800       -0.70500
C         50.92300       36.20000       -0.79500
C         51.92800       35.89000        0.30500
O         53.12500       35.74400        0.03900
C         50.51000       37.67100       -0.74500
C         49.78100       38.21500       -1.97700
C         49.43900       39.68200       -1.74400
C         50.59300       38.03500       -3.26500
N         51.42500       35.76400        1.53300
C         52.26800       35.47200        2.68500
C         52.95500       34.11000        2.63600
O         54.10300       33.98100        3.05900
C         51.49500       35.65800        3.98400
C         51.29400       37.13000        4.33500
C         50.38800       37.25400        5.55100
C         52.63000       37.85300        4.54100
N         52.26100       33.10200        2.11200
C         52.83800       31.76600        1.94000
C         53.98100       31.79000        0.90500
O         55.08100       31.30500        1.17200
C         51.76600       30.74000        1.53800
C         52.40000       29.41400        1.10600
C         50.80300       30.52400        2.67500
N         53.73300       32.37000       -0.26300
C         54.78500       32.49200       -1.25200
C         55.98400       33.27700       -0.74200
O         57.08800       33.08300       -1.21600
C         54.26400       33.13800       -2.53500
C         53.20000       32.39500       -3.35100
C         52.93600       33.13500       -4.64200
C         53.59500       30.94600       -3.62600
N         55.78300       34.15400        0.22800
C         56.86900       35.00100        0.68600
C         57.56300       34.45800        1.94600
O         58.56100       35.02600        2.39900
C         56.34000       36.42100        0.90700
C         57.35100       37.33400        1.58700
C         57.14500       37.46500        0.15400
O         57.28200       37.57100        2.79800
O         57.71800       38.37400        0.75400
N         58.30000       37.84400        0.81100
N         57.18900       37.34000       -1.17100
N         57.05300       33.36000        2.50700
C         57.53800       32.88600        3.80900
C         59.01700       32.47600        3.74600
O         59.44000       31.93200        2.71100
C         56.67600       31.75300        4.33500
O         59.81000       32.69100        4.70300
N         64.00300       32.79100       22.16900
C         63.05700       33.14600       21.07200
C         63.16900       34.62300       20.72000
O         63.42100       34.97800       19.55500
C         61.60400       32.79700       21.41700
C         60.56400       33.32500       20.39500
S         60.58700       32.61600       18.70200
C         59.15500       31.53600       18.72200
N         62.98200       35.48700       21.71600
C         63.11000       36.91700       21.48100
C         64.53900       37.26800       21.07500
O         64.76000       38.10200       20.17900
C         62.67700       37.72100       22.70300
C         62.31200       39.16200       22.36000
S         60.94900       39.29100       21.16800
C         59.67200       38.31100       21.96700
N         65.50200       36.60600       21.71700
C         66.90000       36.80800       21.36100
C         67.17300       36.35300       19.92500
O         67.82100       37.07100       19.15700
C         67.84500       36.11500       22.35100
C         69.30200       36.51700       22.13100
O         69.64300       37.70200       22.39000
O         70.09600       35.65700       21.67500
N         66.65300       35.16900       19.58400
C         66.70900       34.60800       18.22800
C         66.11000       35.55600       17.17800
O         66.75800       35.85100       16.17900
C         66.03300       33.22800       18.20500
C         65.77000       32.65900       16.83400
C         66.77900       32.04700       16.10400
C         64.49700       32.72300       16.27000
C         66.53100       31.51900       14.84300
C         64.24200       32.20200       15.02300
C         65.25900       31.60000       14.31200
O         64.99900       31.09000       13.06400
N         64.89400       36.05200       17.41100
C         64.28900       37.00900       16.48800
C         65.13500       38.26200       16.24700
O         65.18200       38.77200       15.12300
C         62.87600       37.38700       16.91900
C         61.88700       36.23200       16.82900
C         60.50300       36.67200       17.28900
C         61.84300       35.63000       15.43000
N         65.79600       38.75700       17.28900
C         66.67900       39.91600       17.15800
C         67.97100       39.55400       16.39800
O         68.30900       40.18300       15.38100
C         66.98500       40.52400       18.54100
C         65.69000       41.02100       19.19700
C         68.00800       41.64600       18.43800
C         65.67600       40.92100       20.74000
N         68.66300       38.52000       16.86900
C         69.92500       38.07700       16.26500
C         69.79100       37.54600       14.83800
O         70.72800       37.64200       14.05500
C         70.57900       36.95600       17.09200
O         70.13000       37.03000       18.45000
C         72.10300       37.07300       17.04200
N         68.64500       36.96300       14.51000
C         68.49200       36.27100       13.23700
C         67.49000       36.93500       12.30400
O         66.94400       36.27600       11.42100
C         68.09400       34.80700       13.45000
C         68.99800       34.00100       14.37000
C         70.45700       34.05500       13.97400
O         70.82800       33.76200       12.82600
N         71.30300       34.43300       14.93200
N         67.24800       38.23000       12.48700
C         66.37800       38.96800       11.57200
C         64.95800       38.39100       11.52800
O         64.41200       38.10000       10.44400
C         66.97000       38.99400       10.15700
C         68.43000       39.38000       10.14000
O         68.77900       40.53400       10.38900
N         69.29300       38.42000        9.83500
N         64.38100       38.21300       12.71700
C         63.02800       37.70600       12.85400
C         61.98900       38.79800       12.97200
O         60.81700       38.51100       13.09100
N         62.41200       40.05300       12.92900
C         61.49000       41.17900       13.03500
C         60.29300       41.09700       12.10600
O         59.17600       41.44700       12.48000
N         60.52200       40.61400       10.89300
C         59.46200       40.46200        9.90600
C         58.26500       39.59300       10.36000
O         57.15700       39.79300        9.84500
C         60.03900       39.97700        8.57900
C         60.61300       38.58600        8.63400
S         60.95800       37.88500        7.00600
C         59.55800       38.45300        6.02000
N         58.47400       38.66200       11.31000
C         57.37300       37.87100       11.89800
C         56.26300       38.80600       12.39800
O         55.07800       38.55400       12.15300
C         57.82200       36.82700       13.01500
C         58.92700       35.90800       12.50400
C         56.62400       36.14500       13.66900
C         58.19500       37.49100       14.33800
C         58.77200       35.79400       12.43400
N         56.64700       39.90500       13.04500
C         55.66500       40.84600       13.54500
C         54.94900       41.61600       12.44500
O         53.77600       41.97100       12.60800
C         56.28000       41.78200       14.56800
C         56.83500       41.06800       15.75400
C         58.21800       40.88800       15.89800
C         55.98000       40.54500       16.71900
C         58.73400       40.20600       16.99100
C         56.49000       39.85800       17.82400
C         57.86800       39.68700       17.95900
N         55.63500       41.85600       11.32800
C         55.00200       42.47800       10.14700
C         54.02500       41.52700        9.41800
O         52.99600       41.95800        8.88400
C         56.05500       43.00200        9.19500
N         54.36700       40.23900        9.38900
C         53.45700       39.22800        8.89900
C         52.21200       39.20600        9.78900
O         51.09700       39.20800        9.28400
C         54.12000       37.84700        8.85700
C         53.11100       36.77300        8.45300
C         55.27800       37.86000        7.90000
N         52.40800       39.20500       11.10800
C         51.30200       39.29000       12.05300
C         50.48300       40.57600       11.87900
O         49.26000       40.56900       12.04400
C         51.81600       39.17700       13.48700
C         50.80500       39.02100       14.62200
C         52.19100       37.79500       13.99200
C         50.05000       37.71500       14.51000
C         52.69200       37.92300       15.41100
C         51.51900       39.10700       15.94500
C         51.00000       36.87100       13.92000
N         51.17100       41.67000       11.56200
C         50.53200       42.93700       11.26900
C         49.55400       42.78900       10.10400
O         48.41900       43.27700       10.16900
C         51.57000       43.99800       10.96100
N         49.99100       42.10300        9.04900
C         49.15100       41.90100        7.87700
C         47.92900       41.07900        8.22100
O         46.80700       41.46000        7.86900
C         49.92700       41.24300        6.75700
C         50.89400       42.17700        6.07300
S         51.84900       41.29600        4.82000
C         50.55300       40.81600        3.68500
N         48.15500       39.97600        8.93200
C         47.09000       39.11900        9.42700
C         46.06000       39.91700       10.22800
O         44.85900       39.77800       10.01200
C         47.67000       37.99400       10.26200
N         46.53700       40.77700       11.12600
C         45.66000       41.53500       12.02000
C         44.77400       42.49000       11.24500
O         43.55800       42.46900       11.40700
C         46.46100       42.25700       13.12600
O         47.61100       42.88900       12.55900
O         47.15500       41.26500       13.88500
C         46.89800       41.28500       14.19400
C         45.57700       43.07100       14.05400
N         45.38800       43.29800       10.38700
C         44.65400       44.24100        9.55800
C         43.55800       43.52900        8.77100
O         42.42100       44.00100        8.70800
C         45.60500       44.97400        8.62100
N         43.91000       42.38000        8.19700
C         42.99600       41.62100        7.35600
C         41.84700       41.00200        8.13100
O         40.68300       41.23200        7.79200
C         43.73000       40.52600        6.56600
O         44.85300       41.11200        5.91400
C         42.81300       39.90500        5.51400
N         42.19300       40.22400        9.15900
C         41.24300       39.42100        9.92100
C         40.13900       40.26000       10.55400
O         38.96000       40.04000       10.28600
C         41.97000       38.52200       10.97900
C         42.73500       37.39100       10.28700
C         40.99900       37.92900       12.01200
C         43.84000       36.77300       11.13400
N         40.51500       41.23700       11.36600
C         39.53000       41.93700       12.17900
C         38.61500       42.85600       11.37700
O         37.40600       42.87800       11.61700
C         40.18600       42.62500       13.38100
C         40.79700       41.66300       14.34000
C         42.17000       41.43000       14.32800
C         39.99400       40.94400       15.21800
C         42.73900       40.51000       15.20100
C         40.54600       40.01900       16.10300
C         41.92000       39.79500       16.09700
N         39.17100       43.58900       10.42000
C         38.35200       44.36400        9.49500
C         37.46300       43.44600        8.63400
O         36.31600       43.78000        8.35000
C         39.22800       45.22200        8.59500
O         39.92400       44.39900        7.66800
N         38.00200       42.30200        8.21800
C         37.24300       41.29800        7.49600
C         36.08400       40.73200        8.29500
O         34.98800       40.58400        7.75200
N         36.31900       40.41400        9.57400
C         35.25500       39.93500       10.46800
C         34.14900       40.97600       10.58900
O         32.97200       40.63500       10.47900
C         35.78500       39.54600       11.88000
C         36.67000       38.30500       11.79800
C         34.63300       39.28900       12.87800
C         37.42200       38.01500       13.07400
N         34.53300       42.23700       10.79200
C         33.58700       43.33600       10.89500
C         32.68900       43.43400        9.68400
O         31.47500       43.54600        9.80300
N         33.29900       43.37800        8.50500
C         32.55200       43.35900        7.26000
C         31.73800       42.09000        7.10100
O         30.58100       42.15800        6.71200
C         33.47300       43.53900        6.06400
O         33.77500       44.89900        5.87500
N         32.32300       40.93500        7.40400
C         31.58000       39.68900        7.27000
C         30.30900       39.75300        8.10000
O         29.22200       39.45000        7.60600
C         32.42800       38.49100        7.64900
N         30.44400       40.19300        9.34400
C         29.31000       40.25700       10.23500
C         28.28500       41.27700        9.79000
O         27.09600       40.99000        9.78900
C         29.77400       40.53000       11.65800
C         30.16800       39.28600       12.36400
C         30.72000       39.58100       13.70400
C         30.81000       38.30400       14.49000
N         29.44400       37.85500       14.80600
N         28.76400       42.46100        9.41500
C         27.91100       43.58800        9.06400
C         27.16400       43.35600        7.77400
O         25.96200       43.58400        7.70800
N         27.89300       42.91500        6.74900
C         27.33900       42.54100        5.45300
C         26.42700       41.32900        5.62500
O         25.37400       41.24700        4.99400
C         28.47200       42.23400        4.43500
C         27.93900       41.55100        3.18400
C         29.21200       43.48600        4.08200
N         26.82800       40.40100        6.48800
C         26.00600       39.24500        6.80300
C         24.64900       39.62200        7.36200
O         23.62000       39.18400        6.85500
N         24.65900       40.45100        8.40300
C         23.45200       40.91500        9.04800
C         22.50500       41.67000        8.11500
O         21.28700       41.42400        8.12400
C         23.78600       41.80600       10.22800
C         22.52200       42.32500       10.88600
S         22.84600       43.32600       12.31500
C         23.10400       42.05000       13.55500
N         23.05500       42.60300        7.34200
C         22.27000       43.34600        6.36900
C         21.69400       42.39600        5.31300
O         20.51300       42.49900        4.95800
C         23.07900       44.47000        5.72000
O         23.72300       45.22300        6.74100
C         22.17700       45.40300        4.96700
N         22.51800       41.46000        4.84500
C         22.07300       40.43600        3.91800
C         20.86600       39.66600        4.41200
O         19.93800       39.38900        3.65700
N         20.87900       39.30700        5.68600
C         19.76000       38.59300        6.28000
C         18.48800       39.43900        6.20900
O         17.42400       38.93100        5.85500
C         20.07100       38.20300        7.72400
C         21.18500       37.19200        7.87300
C         21.53900       36.93000        9.32900
O         20.66300       36.44300       10.07000
O         22.68600       37.20700        9.74500
N         18.61400       40.72700        6.53100
C         17.48700       41.64900        6.48800
C         17.01500       41.85900        5.05300
O         15.79900       41.87100        4.78200
C         17.85600       42.97700        7.12800
N         17.98300       42.02300        4.14300
C         17.70700       42.18900        2.71900
C         16.98000       40.96500        2.17000
O         16.00200       41.10200        1.44100
C         18.99100       42.46200        1.94900
N         17.44700       39.77700        2.55200
C         16.81200       38.52600        2.15000
C         15.37100       38.44000        2.65200
O         14.48500       38.01600        1.91000
C         17.62200       37.33100        2.62000
N         15.14100       38.85200        3.89800
C         13.79700       38.84200        4.48700
C         12.83400       39.75800        3.71400
O         11.71000       39.35800        3.40600
C         13.84700       39.21900        5.95900
N         13.29000       40.97100        3.38900
C         12.53300       41.87800        2.52700
C         12.22500       41.25800        1.15400
O         11.11300       41.39200        0.64600
C         13.26400       43.21500        2.35200
C         12.60700       44.24800        1.41900
C         11.22000       44.64800        1.92100
C         13.47000       45.49100        1.17800
N         13.20400       40.56700        0.57600
C         13.08700       40.01900       -0.77000
C         12.03200       38.92500       -0.86500
O         11.53800       38.63700       -1.95300
C         14.43600       39.50600       -1.27500
O         15.37500       40.57400       -1.24200
C         14.33800       39.00100       -2.69300
N         11.67800       38.31900        0.26400
C         10.66700       37.24900        0.25300
C          9.27000       37.80600       -0.00800
O          8.36800       37.07000       -0.41000
C         10.62900       36.39900        1.55500
O         10.11000       37.19500        2.62100
C         12.01000       35.86000        1.92500
N          9.08800       39.10100        0.22200
C          7.81800       39.72100       -0.10600
C          7.91400       40.84700       -1.15200
O          6.98700       41.03700       -1.92200
C          7.10500       40.18500        1.15700
O          7.52400       41.48000        1.52800
N          9.01600       41.58500       -1.19200
C          9.16300       42.66800       -2.16100
C         10.49000       42.57500       -2.92000
O         11.38100       43.39500       -2.70500
C          9.05900       44.01600       -1.46500
C          7.73800       44.28800       -0.80500
C          7.85400       45.41000        0.19300
O          8.07700       46.56400       -0.16600
N          7.73900       45.07200        1.46900
N         10.61600       41.58500       -3.83100
C         11.86200       41.35800       -4.55600
C         12.26300       42.49800       -5.49100
O         13.41600       42.56000       -5.90500
C         11.57200       40.09500       -5.36600
C         10.12900       40.05400       -5.50500
C          9.57400       40.62600       -4.24500
N         11.33900       43.39400       -5.81700
C         11.65100       44.50000       -6.72200
C         12.54300       45.55300       -6.06200
O         13.04200       46.46400       -6.72200
C         10.37100       45.13000       -7.29600
C          9.52700       45.92200       -6.29800
C          8.63600       45.03600       -5.40000
O          8.04600       45.60900       -4.43800
O          8.52300       43.79400       -5.64300
N         12.75700       45.42400       -4.76300
C         13.57700       46.37900       -4.04700
C         15.04100       45.91800       -3.91000
O         15.87700       46.59100       -3.29000
C         12.91800       46.71700       -2.71100
C         11.68100       47.54600       -2.91800
C         10.79000       47.58100       -1.70900
C          9.67200       48.60100       -1.89200
N          9.06300       48.93000       -0.56800
N         15.33300       44.79400       -4.55100
C         16.64100       44.15700       -4.54500
C         17.83300       45.09700       -4.71800
O         18.73600       45.11500       -3.86800
C         16.67800       43.07900       -5.61500
C         17.99200       42.39300       -5.74200
C         18.43800       41.52500       -4.74200
C         18.78300       42.58700       -6.87500
C         19.67500       40.85200       -4.86000
C         20.02700       41.93500       -7.01600
C         20.47700       41.05700       -6.00400
N         17.85000       45.85400       -5.81300
C         18.95600       46.76900       -6.09400
C         19.30000       47.67400       -4.92400
O         20.45900       47.78600       -4.52000
N         18.28100       48.32000       -4.36900
C         18.46400       49.25200       -3.25500
C         18.92000       48.50500       -1.99000
O         19.77500       48.98800       -1.26200
C         17.18500       50.07100       -3.00800
C         16.57000       50.76100       -4.26800
C         16.89000       51.13700       -4.06300
C         15.43700       49.95600       -4.95400
C         17.68700       52.40700       -3.87000
O         14.24800       50.23100       -4.74100
O         18.89600       52.44100       -4.08900
N         15.80600       48.98100       -5.78300
N         17.00600       53.46900       -3.47900
N         18.36900       47.31500       -1.76200
C         18.77800       46.46000       -0.65600
C         20.26200       46.09900       -0.74700
O         20.99700       46.15300        0.24800
C         17.92800       45.20400       -0.62600
N         20.69200       45.75000       -1.95500
C         22.07600       45.39700       -2.23500
C         23.04600       46.53100       -1.87000
O         24.11200       46.28600       -1.28200
C         22.21300       45.00700       -3.71300
C         23.41800       44.17800       -4.15300
C         23.67400       42.99600       -3.21100
C         23.23300       43.70700       -5.59100
N         22.67600       47.76700       -2.20800
C         23.51400       48.93000       -1.90600
C         23.68500       49.03800       -0.40400
O         24.80500       49.23200        0.07900
C         22.94000       50.24300       -2.50000
C         23.04900       50.21500       -4.02200
C         23.65000       51.46500       -1.93200
C         22.12100       51.18900       -4.69400
N         22.58200       48.88000        0.33000
C         22.62300       48.88300        1.79700
C         23.53900       47.78500        2.33800
O         24.32200       48.01800        3.25700
C         21.22000       48.77000        2.40200
C         20.37700       50.05200        2.43900
C         18.94000       49.73600        2.78200
C         20.94200       51.10300        3.39200
N         23.45200       46.59800        1.74800
C         24.33300       45.50800        2.11900
C         25.81300       45.79800        1.85900
O         26.67000       45.24700        2.55500
C         23.93200       44.21600        1.42900
C         24.47900       43.00300        2.12900
C         24.41000       41.75300        1.29500
O         24.00900       41.78500        0.13500
N         24.81800       40.63600        1.88100
N         26.12100       46.64800        0.87800
C         27.52000       46.91300        0.54100
C         28.21900       47.84900        1.50600
O         29.42500       47.74300        1.68700
C         27.67500       47.41500       -0.89400
C         27.41200       46.39800       -2.01500
C         27.67400       47.05000       -3.36800
C         28.19500       45.06000       -1.84600
N         27.46700       48.75000        2.13400
C         28.03800       49.71600        3.08000
C         28.94200       49.14200        4.19500
O         30.05400       49.63800        4.38600
C         26.93700       50.59300        3.66200
C         26.50000       51.87800        2.93900
C         26.80900       51.91900        1.43300
C         25.01700       52.13100        3.19700
N         28.49100       48.09200        4.92500
C         29.40600       47.51100        5.91100
C         30.56100       46.70800        5.28700
O         31.42900       46.20800        6.01100
C         28.50700       46.58800        6.73500
C         27.14600       46.82300        6.26300
C         27.20000       47.38900        4.92500
N         30.57500       46.59800        3.96200
C         31.57400       45.79700        3.27500
C         32.88500       46.49600        2.97500
O         33.84800       45.86100        2.56800
N         32.91700       47.81000        3.16200
C         34.12100       48.58800        2.89400
C         35.22600       48.31200        3.92600
O         36.40500       48.30200        3.57000
C         33.83200       50.11000        2.81300
O         33.17800       50.53100        4.01000
C         32.95800       50.43100        1.62800
N         34.84500       48.07700        5.18600
C         35.80900       47.86600        6.28200
C         36.89400       46.86000        5.94100
O         38.07900       47.13800        6.09700
C         35.10000       47.45800        7.58000
C         34.55800       48.62900        8.38300
C         33.24900       49.19200        7.84700
O         32.83400       48.90900        6.72300
N         32.59400       50.00200        8.65900
N         36.47800       45.69200        5.46800
C         37.40300       44.62700        5.10200
C         38.31900       44.99000        3.95800
O         39.44600       44.51000        3.89100
N         37.82300       45.82900        3.05000
C         38.62000       46.32000        1.92900
C         39.71900       47.25700        2.39600
O         40.84200       47.15900        1.91100
C         37.75200       46.99000        0.86100
C         36.81600       46.07900        0.06800
C         35.81300       46.91000       -0.71600
C         37.59500       45.13900       -0.84400
N         39.40100       48.15600        3.33000
C         40.40500       49.01800        3.95200
C         41.48800       48.19800        4.62700
O         42.67100       48.50900        4.51000
C         39.78800       49.92000        5.01800
C         38.75600       50.91700        4.55200
C         37.68300       51.25500        5.37400
C         38.84600       51.52900        3.30700
C         36.72700       52.16600        4.97100
C         37.88800       52.44500        2.89400
C         36.83600       52.75400        3.73700
O         35.88300       53.65600        3.35000
N         41.06900       47.16600        5.35300
C         41.98800       46.28800        6.06600
C         42.91400       45.59200        5.10100
O         44.11200       45.51800        5.33800
N         42.35000       45.10200        4.00400
C         43.10900       44.44900        2.94700
C         44.13600       45.39900        2.32100
O         45.28000       45.01100        2.07300
C         42.15900       43.89600        1.88100
C         42.86100       43.27100        0.70900
C         43.24200       41.92600        0.74500
C         43.14100       44.02700       -0.44500
C         43.90400       41.34000       -0.36600
C         43.79100       43.46400       -1.53700
C         44.17300       42.12000       -1.50600
N         43.72200       46.63600        2.06600
C         44.60800       47.63900        1.47800
C         45.80500       47.88800        2.40800
O         46.95000       47.89200        1.94600
C         43.85100       48.94400        1.11100
C         44.80500       50.07200        0.80000
C         42.91300       48.68700       -0.05700
N         45.54000       48.04500        3.70800
C         46.59500       48.24700        4.70000
C         47.52100       47.04400        4.72800
O         48.73100       47.20900        4.78900
C         46.02600       48.55100        6.12200
C         45.36300       49.93100        6.14800
C         47.10400       48.43000        7.22100
C         46.29100       51.08900        5.80600
N         46.95700       45.84000        4.66300
C         47.76100       44.61300        4.65300
C         48.70700       44.58300        3.44900
O         49.88600       44.26100        3.58200
C         46.87100       43.38100        4.66600
N         48.18100       44.94300        2.28100
C         48.97000       45.01000        1.05900
C         50.06300       46.08300        1.09700
O         51.15100       45.89200        0.54200
C         48.07300       45.24400       -0.14800
C         48.77400       45.02500       -1.44100
C         49.06600       43.72700       -1.87700
C         49.18800       46.11100       -2.21300
C         49.75800       43.51000       -3.07500
C         49.87200       45.90600       -3.42100
C         50.16000       44.60200       -3.85100
N         49.76400       47.20200        1.75400
C         50.71500       48.28800        1.90500
C         51.85500       47.87200        2.80200
O         52.99500       48.26600        2.57900
C         50.03700       49.53900        2.46200
C         50.81000       50.85300        2.32800
C         49.11000       50.28400        1.48500
C         50.72900       51.38500        0.88100
C         48.06000       51.06400        2.24400
C         50.27100       51.87700        3.30900
C         49.87400       51.19100        0.52100
N         51.54800       47.07000        3.81800
C         52.58400       46.49800        4.68200
C         53.39400       45.52200        3.84300
O         54.62200       45.55900        3.86700
C         51.99000       45.79400        5.93500
C         51.37200       46.81500        6.87900
C         53.05600       45.04600        6.70400
C         50.48300       46.19800        7.91600
N         52.69200       44.67300        3.08800
C         53.32000       43.66100        2.24100
C         54.39300       44.22800        1.30000
O         55.50500       43.69200        1.23300
C         52.27400       42.90700        1.43400
C         52.84700       41.81300        0.59000
C         53.37300       40.66500        1.17700
C         52.87300       41.92600       -0.79600
C         53.90400       39.64100        0.40100
C         53.40100       40.92000       -1.57900
C         53.91700       39.77200       -0.97800
N         54.07300       45.31400        0.59600
C         55.03500       45.90600       -0.32700
C         56.21300       46.56800        0.39900
O         57.04800       47.19400       -0.24300
C         54.37000       46.86000       -1.37300
C         53.77000       48.10200       -0.71000
C         53.34000       46.09300       -2.23000
C         53.12400       49.07500       -1.69200
N         56.28400       46.40600        1.72200
C         57.40000       46.88900        2.53500
C         57.96100       45.76700        3.37700
O         58.67100       46.00100        4.35500
C         56.93600       47.98400        3.48100
C         56.48200       49.21300        2.76000
O         57.29700       50.02700        2.33600
N         55.17200       49.36900        2.61500
N         57.60900       44.54400        3.02000
C         57.99600       43.39200        3.80100
C         59.39500       42.92100        3.37500
O         59.61900       42.62000        2.20700
C         56.94600       42.29300        3.62600
C         56.89400       41.13500        4.62800
C         56.71600       41.62300        6.08000
C         55.78100       40.15800        4.23500
N         60.34300       42.88000        4.30700
C         61.71300       42.46100        4.00300
C         62.42000       41.90100        5.21700
O         62.18800       42.35600        6.33900
N         63.27600       40.90200        5.00600
C         64.02000       40.28200        6.11500
C         65.05000       41.23700        6.74200
O         65.65500       40.92500        7.77100
C         64.67100       38.96400        5.67500
O         65.32200       39.10400        4.42300
N         65.23000       42.40100        6.11300
C         66.12600       43.43500        6.62800
C         65.44000       44.33900        7.62700
O         66.04600       45.26200        8.14100
C         66.78900       44.26300        5.50900
C         65.79100       44.86700        4.50900
O         64.79600       44.19400        4.14100
O         66.04100       46.01500        4.04900
N         64.17900       44.05300        7.91600
C         63.39500       44.78400        8.89000
C         63.78800       44.34800       10.29000
O         63.88700       43.14700       10.55800
C         61.94700       44.42200        8.65300
C         60.92000       45.10700        9.50200
S         59.37400       44.24000        9.20300
C         59.10300       44.44400        7.42400
N         64.00100       45.32100       11.17900
C         64.30900       45.03400       12.58900
C         63.05500       44.65900       13.37800
O         61.92800       44.88300       12.91300
C         64.96900       46.24100       13.24800
O         64.00300       47.20200       13.61600
N         63.25700       44.10400       14.57300
C         62.16200       43.84600       15.51500
C         61.36200       45.13200       15.85100
O         60.13000       45.12700       15.83600
C         62.65500       43.08900       16.78600
C         61.65900       43.19000       17.92100
C         62.91300       41.62800       16.45000
N         62.05800       46.23300       16.11000
C         61.37700       47.50900       16.32000
C         60.46100       47.86200       15.12900
O         59.30600       48.26800       15.32800
C         62.36900       48.66700       16.68100
C         61.71200       50.02300       16.56500
C         62.88200       48.47500       18.08400
N         60.95300       47.69100       13.90300
C         60.11700       47.99700       12.73700
C         58.93200       47.02400       12.61100
O         57.81000       47.43300       12.33300
C         60.95100       48.07600       11.45800
C         62.00600       49.16100       11.52800
C         60.27900       48.90400       10.35500
C         63.11800       48.98200       10.51800
C         61.11300       49.05000        9.08800
O         63.82700       47.96200       10.50100
O         62.03200       48.27000        8.83200
N         63.28700       49.98300        9.67200
N         60.78100       50.05200        8.28000
N         59.19200       45.74400       12.84800
C         58.14300       44.73800       12.86000
C         57.02400       45.10700       13.82000
O         55.83900       45.08700       13.44700
N         57.40200       45.45300       15.05100
C         56.45300       45.92600       16.05100
C         55.73400       47.20700       15.63800
O         54.55600       47.36100       15.94100
C         57.11400       46.09200       17.41600
C         57.57200       44.79400       18.09900
C         58.34000       45.10200       19.35900
C         56.41500       43.84800       18.38700
N         56.41600       48.11100       14.93800
C         55.75500       49.30600       14.41400
C         54.66400       48.96300       13.42400
O         53.61200       49.60800       13.41300
C         56.74500       50.28000       13.77300
C         57.61000       50.99200       14.80200
O         57.21900       51.12700       15.97200
N         58.80000       51.44100       14.38000
N         54.91400       47.95100       12.59000
C         53.93000       47.51700       11.61000
C         52.73400       46.87700       12.31800
O         51.57700       47.06600       11.89600
C         54.53600       46.54100       10.61100
C         55.31400       47.19200        9.52400
C         56.68400       46.96200        9.40100
C         54.69200       48.02000        8.61000
C         57.41600       47.55300        8.38700
C         55.42100       48.62100        7.57700
C         56.77900       48.38000        7.46500
N         53.02400       46.12500       13.38700
C         51.98800       45.50000       14.21300
C         51.09300       46.55300       14.86900
O         49.85900       46.44000       14.83700
C         52.58700       44.56100       15.26000
C         51.61500       43.63200       16.00100
C         50.64700       42.88100       15.06800
C         52.39200       42.63900       16.82800
N         51.71400       47.58500       15.43600
C         50.98100       48.71400       15.98800
C         50.17700       49.42300       14.91700
O         49.02400       49.75400       15.13900
N         50.79600       49.64600       13.75700
C         50.15700       50.28400       12.60200
C         48.87900       49.57400       12.14200
O         47.92800       50.21900       11.70400
C         51.14400       50.37700       11.45100
N         48.85600       48.25100       12.24400
C         47.70600       47.47500       11.78700
C         46.47300       47.55300       12.71700
O         45.33400       47.33500       12.27700
C         48.10200       46.01800       11.60900
O         48.17200       45.37400       12.86500
N         46.70000       47.84900       13.99700
C         45.62300       47.89100       14.98900
C         44.46300       48.85900       14.69300
O         43.30800       48.46100       14.82000
C         46.17700       48.11800       16.39100
C         47.20800       47.10200       16.86700
C         47.58000       47.41700       18.29800
C         46.72000       45.66700       16.74400
N         44.74900       50.13000       14.31700
C         43.61700       51.03000       14.04700
C         42.60100       50.51000       13.01700
O         41.41500       50.43700       13.32300
C         44.29500       52.31900       13.57700
C         45.59700       52.28600       14.26400
C         46.02500       50.84700       14.17200
N         43.03200       50.12900       11.82500
C         42.06200       49.59300       10.87100
C         41.46800       48.27200       11.35600
O         40.30600       47.99300       11.10300
C         42.62800       49.46300        9.41300
C         41.49600       49.28100        8.39600
C         43.62900       48.31400        9.30000
C         40.29300       50.16000        8.63700
N         42.25600       47.47000       12.06000
C         41.78400       46.16200       12.49000
C         40.57400       46.29700       13.38700
O         39.58100       45.63200       13.17300
C         42.88900       45.38000       13.19100
N         40.64700       47.19100       14.37100
C         39.60800       47.27100       15.39600
C         38.51300       48.31200       15.18500
O         37.38000       48.07400       15.58000
C         40.21800       47.29400       16.79500
C         40.89400       46.02000       17.14200
C         42.26400       45.90200       17.04600
C         40.15400       44.91100       17.50400
C         42.89100       44.70200       17.33900
C         40.77600       43.69800       17.79700
C         42.14400       43.59300       17.71700
N         38.81700       49.43400       14.54100
C         37.74400       50.31300       14.08100
C         36.98100       49.60200       12.96800
O         35.76500       49.73900       12.86000
C         38.22800       51.68400       13.57600
O         39.08700       51.50100       12.44700
C         38.95500       52.44500       14.68200
N         37.69800       48.82000       12.16400
C         37.08400       47.98800       11.13200
C         36.10300       46.98200       11.69800
O         34.95800       46.89000       11.23300
N         36.55400       46.23200       12.70300
C         35.70800       45.26900       13.41500
C         34.43500       45.89800       13.97800
O         33.33100       45.44900       13.67300
C         36.47600       44.56700       14.54700
C         35.70000       43.58300       15.43800
C         35.12100       42.42000       14.63400
C         36.59000       43.06900       16.54000
N         34.59000       46.93300       14.79500
C         33.44900       47.47700       15.49900
C         32.55400       48.34200       14.63800
O         31.33000       48.26700       14.77300
C         33.87200       48.17000       16.79200
C         34.38000       47.21700       17.82200
C         35.72300       46.90200       17.89200
C         33.50800       46.58300       18.68300
C         36.18500       46.00400       18.82500
C         33.97200       45.67800       19.61000
C         35.30900       45.39200       19.68100
N         33.14400       49.12800       13.73900
C         32.34100       49.97200       12.85400
C         31.57400       49.14400       11.84700
O         30.44500       49.47000       11.52900
C         33.16900       51.05600       12.15200
O         33.99500       50.50400       11.15100
N         32.18600       48.07400       11.35300
C         31.50700       47.15600       10.45000
C         30.24500       46.57500       11.06600
O         29.18400       46.58200       10.44300
N         30.36300       46.07400       12.29300
C         29.22400       45.55700       13.03100
C         28.16200       46.65400       13.23200
O         26.98900       46.45100       12.91200
C         29.65700       44.91200       14.39000
C         30.38100       43.59100       14.13500
C         28.45100       44.67100       15.31400
C         31.27200       43.14700       15.25900
N         28.58300       47.80700       13.75400
C         27.67000       48.90300       14.03800
C         27.00100       49.38100       12.74400
O         25.79300       49.62500       12.71300
C         28.39800       50.04300       14.74200
N         27.78000       49.48400       11.67200
C         27.25300       49.91400       10.39400
C         26.25000       48.91700        9.83500
O         25.24700       49.32600        9.26100
C         28.38400       50.14100        9.39400
C         27.94800       50.78300        8.10900
C         29.11600       51.19800        7.27900
O         30.07900       50.44100        7.12700
N         29.05500       52.41300        6.72600
N         26.52700       47.62100        9.98600
C         25.60200       46.58000        9.56500
C         24.24200       46.72100       10.22900
O         23.21600       46.53500        9.58700
N         24.23000       47.06100       11.51400
C         22.98800       47.28800       12.24700
C         22.16200       48.45200       11.67800
O         20.93700       48.35300       11.57900
C         23.26900       47.51100       13.73300
C         23.63100       46.25600       14.49800
C         24.10100       46.59600       15.88100
C         24.46700       45.33400       16.61100
N         25.41500       45.59800       17.74000
N         22.83000       49.54600       11.30800
C         22.15500       50.70900       10.73100
C         21.67700       50.37400        9.31600
O         20.55800       50.71200        8.92900
C         23.05500       51.98300       10.70000
C         22.23500       53.21200       10.37800
C         23.73500       52.21100       12.02200
N         22.52300       49.70200        8.54300
C         22.15500       49.30600        7.20900
C         20.92100       48.40900        7.27600
O         19.94200       48.64700        6.56900
C         23.31200       48.62600        6.51900
N         20.94900       47.40300        8.15200
C         19.78700       46.51800        8.36600
C         18.52100       47.30000        8.71800
O         17.44200       47.00000        8.21300
C         20.08300       45.50600        9.43100
N         18.65700       48.30400        9.58400
C         17.55500       49.19300        9.92000
C         17.08000       49.99800        8.69100
O         15.87700       50.22800        8.51300
C         17.94900       50.10400       11.04600
N         18.01500       50.40200        7.83800
C         17.66300       51.03500        6.58200
C         16.77600       50.19100        5.67500
O         15.96300       50.73500        4.92900
N         16.93000       48.86700        5.72300
C         16.07600       47.96000        4.94300
C         14.57400       48.19500        5.22500
O         13.74100       48.06400        4.33100
C         16.48200       46.45100        5.12900
C         17.90000       46.18600        4.59100
C         15.45100       45.48300        4.50400
C         18.03600       46.11600        3.07500
N         14.23800       48.57300        6.45600
C         12.84600       48.83400        6.82800
C         12.34100       50.16300        6.25700
O         11.15000       50.30000        5.98500
C         12.62300       48.75100        8.35000
C         13.41100       47.62000        9.08200
C         12.20900       47.38000        8.88000
C         13.39900       46.23800        8.37900
C         10.88000       46.89300        8.32200
O         12.36000       45.77300        7.90500
O          9.82200       47.47400        8.58500
N         14.56800       45.57900        8.33600
N         10.92900       45.80900        7.55000
N         13.23100       51.13800        6.07500
C         12.87900       52.36100        5.34200
C         12.52700       51.95300        3.91200
O         11.47200       52.30000        3.39200
C         14.03100       53.41400        5.31000
C         14.34500       53.94200        6.71600
C         13.69300       54.55000        4.35300
C         15.58200       54.81700        6.79200
N         13.42000       51.18700        3.29500
C         13.20600       50.62700        1.97400
C         11.87400       49.89700        1.85400
O         11.17400       50.05200        0.85500
C         14.34800       49.67400        1.65900
C         14.56200       49.26700        0.21300
C         14.70500       50.51700       -0.62200
C         15.81000       48.44300        0.15000
N         11.53800       49.11200        2.87800
C         10.29000       48.34200        2.92900
C          9.01700       49.20500        2.98400
O          8.01300       48.86200        2.35800
C         10.31200       47.37300        4.10700
N          9.06100       50.31100        3.72600
C          7.87300       51.12200        3.99200
C          7.83500       52.39500        3.14600
O          6.77000       52.83400        2.73900
C          7.81100       51.51500        5.47500
C          7.57000       50.37400        6.45500
C          6.08700       50.10000        6.62200
C          5.81500       49.30200        7.88700
N          6.31200       47.90600        7.76400
N          8.98900       53.00500        2.89900
C          9.05900       54.26300        2.15600
C         10.20400       54.20700        1.15400
O         11.19900       54.93400        1.30600
C          9.31100       55.42300        3.10800
C          8.31100       55.56500        4.20600
C          7.33100       56.64400        3.88600
C          6.38100       56.83000        5.03300
N          5.28900       57.73600        4.60900
N         10.07200       53.35500        0.11500
C         11.16800       53.12600       -0.83400
C         11.71100       54.40900       -1.45200
O         12.90800       54.49700       -1.75600
C         10.52500       52.25100       -1.91700
C          9.05700       52.33500       -1.68700
C          8.88200       52.55600       -0.23400
N         10.84700       55.40000       -1.62400
C         11.26900       56.65300       -2.22000
C         12.23500       57.41500       -1.29800
O         12.85200       58.39500       -1.72400
C         10.05100       57.49400       -2.63800
C          9.24500       58.11700       -1.47700
C          8.28000       57.14400       -0.74700
O          7.51500       57.64600        0.12000
O          8.27400       55.91000       -1.02800
N         12.38200       56.95000       -0.05100
C         13.27700       57.60200        0.91300
C         14.54400       56.80500        1.25100
O         15.27500       57.13000        2.20000
C         12.51700       57.95900        2.17500
C         11.54100       59.07600        1.98400
N         11.92600       60.40000        1.89500
C         10.19100       59.06800        1.86500
C         10.85600       61.15800        1.73000
N          9.79000       60.37600        1.71400
N         14.80600       55.78000        0.44600
C         15.92800       54.87000        0.65300
C         17.28300       55.55200        0.83600
O         18.13200       55.03500        1.56600
C         15.99800       53.87200       -0.48100
N         17.48800       56.69800        0.18900
C         18.74900       57.42000        0.30200
C         19.02200       57.83700        1.74300
O         20.17900       57.86100        2.18800
C         18.78800       58.63600       -0.64500
O         18.72200       58.16300       -1.99300
C         20.08300       59.46200       -0.48200
N         17.95800       58.14700        2.47700
C         18.09500       58.51000        3.88800
C         18.73000       57.37000        4.69700
O         19.62500       57.61200        5.52100
C         16.74400       58.91900        4.47300
C         16.25200       60.25500        3.96400
C         14.82400       60.52700        4.43500
C         14.34400       61.89000        3.97300
N         14.31100       62.02400        2.49200
N         18.28200       56.14200        4.43700
C         18.87000       54.96600        5.05700
C         20.35600       54.82400        4.73000
O         21.17600       54.47100        5.59900
N         20.70800       55.10900        3.47500
C         22.10300       55.06100        3.05700
C         22.94400       56.05500        3.85000
O         23.99500       55.69400        4.38300
C         22.25800       55.25600        1.53500
C         21.68600       54.03900        0.81500
C         23.73500       55.45300        1.13900
C         21.51000       54.25100       -0.67800
N         22.46700       57.28800        3.94400
C         23.14900       58.32000        4.71700
C         23.32100       57.97000        6.21600
O         24.41700       58.15800        6.76500
C         22.47500       59.69700        4.51000
C         22.66500       60.13500        3.05900
C         23.03800       60.76600        5.46300
C         21.75900       61.27400        2.63700
N         22.26600       57.45500        6.86200
C         22.35800       57.03800        8.27000
C         23.47100       56.02200        8.43700
O         24.30300       56.14300        9.33900
C         21.05400       56.42100        8.78300
C         19.93500       57.40500        8.97500
C         18.64400       57.08600        8.55600
C         20.15800       58.64100        9.58100
C         17.58900       57.98500        8.73500
C         19.11600       59.54000        9.76400
C         17.82500       59.21000        9.33700
N         23.48600       55.02100        7.56200
C         24.52200       53.99500        7.60200
C         25.90500       54.58600        7.29700
O         26.89300       54.21800        7.94100
C         24.18000       52.85700        6.66000
N         25.95300       55.52100        6.34400
C         27.19200       56.14900        5.91000
C         27.89200       56.90200        7.03100
O         29.11400       56.97400        7.04400
C         26.94300       57.06900        4.71800
N         27.12600       57.44200        7.98000
C         27.70300       58.16600        9.12900
C         28.63500       57.31400        9.97800
O         29.55600       57.83600       10.60600
C         26.61600       58.77100       10.02600
C         25.76300       59.85500        9.36600
S         26.69900       61.22300        8.61100
C         26.87000       60.67200        6.88400
N         28.38700       56.00800       10.00900
C         29.23900       55.09900       10.76500
C         30.56300       54.89600       10.02200
O         31.58800       54.64000       10.64100
C         28.52800       53.74600       11.08700
C         29.37600       52.88400       12.02400
C         27.17200       54.00000       11.71800
N         30.53500       55.05700        8.70400
C         31.71100       54.87800        7.87300
C         32.91400       55.70200        8.35300
O         34.06000       55.22500        8.32400
C         31.37500       55.20900        6.42200
C         32.45300       54.83100        5.42200
C         32.62400       53.32200        5.24500
O         31.77600       52.53400        5.72900
O         33.61700       52.91200        4.60300
N         32.63900       56.92700        8.80900
C         33.66400       57.85800        9.29800
C         34.78300       57.17100       10.08800
O         35.96600       57.43400        9.86200
C         33.02000       58.95600       10.18500
O         31.94900       59.56900        9.46800
C         34.02000       60.02100       10.58900
N         34.39400       56.27500       10.98700
C         35.29600       55.74200       12.00200
C         36.18300       54.66100       11.44000
O         37.28500       54.45000       11.93900
C         34.49200       55.35200       13.26100
C         33.67300       56.55100       13.58200
C         32.33000       56.61400       13.22400
C         34.29300       57.71300       14.08700
C         31.59500       57.78200       13.44000
C         33.57400       58.88000       14.30100
C         32.22900       58.90600       13.97800
O         31.51600       60.05200       14.18500
N         35.71300       54.02100       10.36900
C         36.54000       53.10200        9.60600
C         37.55800       53.89600        8.79100
O         38.70700       53.48800        8.69100
C         35.69300       52.22100        8.70700
N         37.13500       55.03400        8.23400
C         38.01500       55.89100        7.42600
C         39.10300       56.51600        8.28700
O         40.27100       56.50900        7.90000
C         37.23800       56.97600        6.62600
C         36.37200       56.32100        5.52900
C         38.20800       57.99300        6.01700
C         35.30700       57.24700        4.90400
N         38.73400       57.02500        9.46000
C         39.73500       57.56300       10.39800
C         40.72500       56.48600       10.81600
O         41.93300       56.73000       10.86600
C         39.08900       58.22600       11.62800
C         38.15900       59.43900       11.41000
C         37.54400       59.90100       12.74200
C         38.84700       60.61000       10.69200
N         40.20200       55.29000       11.08800
C         41.02300       54.11500       11.40400
C         41.98200       53.78300       10.28000
O         43.15900       53.52100       10.52100
N         41.47200       53.81800        9.05100
C         42.25800       53.57200        7.85200
C         43.34700       54.62300        7.68800
O         44.50800       54.27500        7.43500
C         41.34800       53.54300        6.62100
C         42.07400       53.37000        5.31200
C         42.62100       52.13400        4.95100
C         42.18300       54.43700        4.42300
C         43.27800       51.95800        3.74100
C         42.83500       54.27700        3.19700
C         43.39000       53.02900        2.86000
N         42.98300       55.89600        7.84600
C         43.94900       56.99100        7.68200
C         45.11800       56.89600        8.68500
O         46.28500       57.03500        8.28600
C         43.27900       58.39100        7.68800
C         44.30700       59.49200        7.80900
C         42.46200       58.57800        6.43900
N         44.82600       56.63800        9.96000
C         45.89200       56.45500       10.96000
C         46.78600       55.25400       10.61600
O         48.01600       55.37000       10.62600
C         45.32700       56.35400       12.41100
C         44.67400       57.67900       12.82300
C         46.41200       55.94000       13.42000
C         45.62700       58.90400       12.84000
N         46.16600       54.11700       10.30300
C         46.90400       52.91800        9.91400
C         47.80400       53.20200        8.70700
O         48.94200       52.73600        8.65000
C         45.94500       51.76300        9.60200
O         45.63300       51.03700       10.77800
N         47.28000       53.98100        7.75800
C         48.01400       54.33800        6.55100
C         49.27500       55.12800        6.88900
O         50.37700       54.76000        6.46900
C         47.13300       55.12500        5.58900
C         47.74100       55.29700        4.23400
C         47.54900       54.33500        3.24200
C         48.51500       56.42600        3.94000
C         48.12800       54.48900        1.96200
C         49.09100       56.59100        2.67300
C         48.90200       55.61900        1.68500
N         49.10800       56.20600        7.65200
C         50.23300       57.02200        8.09000
C         51.24800       56.22100        8.89000
O         52.44900       56.40900        8.72000
C         49.76300       58.21200        8.93000
C         48.91600       59.30700        8.26800
C         48.57300       60.36300        9.31700
C         49.62000       59.95000        7.07100
N         50.77400       55.33300        9.76300
C         51.67900       54.53600       10.59100
C         52.45700       53.48500        9.80100
O         53.58600       53.16600       10.16300
C         50.92600       53.88900       11.74900
C         50.58700       54.83100       12.89800
C         49.77000       54.07900       13.94000
C         51.85200       55.42500       13.52600
N         51.85100       52.95900        8.73500
C         52.50900       51.97000        7.88900
C         53.63500       52.63500        7.11200
O         54.76200       52.12300        7.09100
C         51.53200       51.24200        6.93200
C         52.29200       50.46500        5.85200
C         50.66600       50.27800        7.71900
N         53.33200       53.78000        6.49800
C         54.32900       54.58100        5.80100
C         55.47600       55.02000        6.69400
O         56.57500       55.25000        6.21400
C         53.69100       55.82300        5.19400
C         52.73700       55.62500        4.02100
C         52.45900       56.98300        3.42300
C         53.28200       54.64800        2.96600
N         55.22700       55.12800        7.99200
C         56.22800       55.62900        8.93000
C         56.84300       54.54400        9.83000
O         57.67500       54.84000       10.68400
C         55.60600       56.75800        9.75700
C         56.63000       57.57500       10.51900
C         55.56500       58.08200        8.99900
O         56.68300       57.53400       11.75200
O         56.26500       59.02900        9.35100
N         57.44200       58.33800        9.79000
N         54.75200       58.14800        7.95200
N         56.44300       53.28700        9.63900
C         56.94000       52.21500       10.49300
C         58.45000       52.08400       10.32500
O         59.19300       51.90900       11.29700
C         56.24200       50.90000       10.18000
O         58.96400       52.16500        9.20000
Li        30.03700       63.45300       20.66900
O         29.47000       48.28100       30.60900
C         28.71300       49.39800       30.18300
C         28.83600       49.57300       28.67600
O         28.90100       50.96500       28.40200
C         27.62800       48.93200       27.98000
O         27.64800       49.10100       26.54800
P         28.18600       47.97100       25.49000
O         27.59700       46.61600       25.84300
O         28.02500       48.46100       24.06100
O         29.76500       47.92300       25.85400
C         30.79000       47.85600       24.86300
C         32.05600       48.40000       25.50600
C         32.43400       47.50800       26.68200
O         33.12600       48.53800       24.55900
C         33.62800       47.33800       23.89900
O         32.93000       46.81600       23.05300
C         34.98900       46.76600       24.24700
C         35.93300       46.79500       23.05200
C         37.26200       46.11000       23.35400
O         33.18400       48.29200       27.59800
C         34.34800       47.73200       28.27100
O         34.17900       46.75200       28.98200
C         35.71700       48.36800       28.11100
C         38.04500       45.88400       22.06200
C         39.53700       45.66600       22.29400
C         40.34800       45.98700       21.04000
C         41.83800       45.71000       21.24700
C         42.70900       46.75200       20.54500
C         44.13500       46.82100       21.10100
C         44.64300       48.26600       21.21700
C         45.89300       48.40400       22.09200
C         45.59200       48.33800       23.59500
C         46.70100       48.93500       24.47200
C         46.37600       48.88800       25.96800
C         45.62200       50.10500       26.46100
C         36.73400       47.39500       27.52800
C         38.13200       47.72200       28.03100
C         39.17100       47.39900       26.96500
C         40.33700       46.60300       27.54600
C         41.66500       46.87600       26.83500
C         41.98900       45.80000       25.79500
C         42.97700       44.76000       26.32500
C         44.39000       44.95900       25.77600
C         45.41300       44.12000       26.54500
C         46.31700       44.98800       27.42200
C         47.02700       44.18300       28.51100
C         47.46600       45.07800       29.66800
C         48.86800       44.72900       30.16000
C         49.17700       45.39700       31.48600
O         61.67000       37.09100       27.42300
C         61.52700       38.31900       26.71700
C         60.35400       39.12800       27.27100
C         59.03200       38.49100       26.85500
O         60.42000       39.23100       28.69900
C         59.99300       40.52700       29.21600
O         60.67200       41.51500       28.98800
C         58.73200       40.63900       30.04400
C         57.51300       40.97300       29.18400
C         57.52100       42.39700       28.62700
O         58.23700       39.45300       26.16000
C         56.80700       39.25900       25.93200
O         56.03800       39.29000       26.88100
C         56.27700       39.03200       24.53400
C         56.42400       42.59400       27.58300
C         56.27500       44.05900       27.18200
C         56.66200       44.28800       25.72500
C         55.70400       45.24900       25.03300
C         55.75400       45.05800       23.52200
C         54.97200       46.14600       22.80000
C         53.70500       45.58100       22.16900
C         53.64800       45.85800       20.66600
C         52.22400       45.90600       20.11400
C         51.60000       44.51700       20.01400
C         50.08000       44.55700       20.12400
C         49.48100       43.19400       19.84300
C         55.88000       40.35600       23.89500
C         55.37700       40.12800       22.47800
C         54.47700       41.27200       22.03000
C         53.94300       41.00700       20.62800
C         52.47000       40.62800       20.66900
C         52.16500       39.55300       19.63700
C         51.32600       38.43500       20.24500
C         51.35700       37.18200       19.37500
C         50.23600       36.21300       19.74200
C         49.36100       35.88200       18.53400
C         48.39800       34.73700       18.84600
C         47.08000       34.86800       18.08400
C         46.51100       33.50400       17.68400
C         45.14700       33.25000       18.29400
Li        27.51300       64.96100       40.69800
O         28.29300       46.86800       39.88500
C         27.39400       47.93100       40.13700
C         27.48800       48.96400       39.02300
O         27.44200       50.25100       39.61800
C         26.32100       48.77600       38.04600
O         26.31500       49.74900       36.98200
P         26.93300       49.49300       35.48800
O         26.45200       48.15400       34.95900
O         26.72300       50.71300       34.61000
O         28.50900       49.35000       35.81900
C         29.52700       49.93700       35.01400
C         30.75100       50.09500       35.90700
C         31.21400       48.72500       36.38100
O         31.81000       50.81900       35.26300
C         32.39600       50.28000       34.03900
O         31.73500       50.31500       33.01600
C         33.79900       49.70700       34.03600
C         34.73600       50.53000       33.16000
C         36.11500       49.88900       33.05600
O         31.92100       48.89400       37.60100
C         33.12200       48.11100       37.87700
O         33.04200       46.89300       37.88400
C         34.43900       48.80000       38.17300
C         36.89100       50.47700       31.88100
C         38.39900       50.28400       32.01700
C         39.17700       51.33500       31.22600
C         40.68500       51.09800       31.28200
C         41.45400       52.41600       31.34500
C         42.88000       52.25200       31.87500
C         43.26400       53.37600       32.84600
C         44.49800       53.06100       33.69500
C         44.20400       52.12800       34.87900
C         45.30500       52.13700       35.94800
C         45.00000       51.19700       37.12000
C         44.16700       51.83400       38.21500
C         35.52000       48.40600       37.17000
C         36.89900       48.50000       37.80700
C         37.94300       48.93500       36.78600
C         39.16700       48.02400       36.83200
C         40.46200       48.75500       36.47400
C         40.86900       48.51800       35.01600
C         41.93900       47.43500       34.87000
C         43.32900       48.00700       34.58500
C         44.41800       46.94900       34.77400
C         45.26100       47.21200       36.02500
C         46.05700       45.98200       36.46900
C         46.42500       46.06400       37.95100
C         47.85000       45.57900       38.20700
C         48.11400       45.38800       39.68700
O         61.16600       41.85900       32.04800
C         60.94100       43.26000       32.19800
C         59.70100       43.51900       33.05400
C         58.43500       43.16700       32.27500
O         59.75800       42.76400       34.27000
C         59.24600       43.48200       35.43500
O         59.85200       44.45700       35.85100
C         57.98800       43.01600       36.13500
C         56.73900       43.69600       35.57300
C         56.61500       45.17100       35.96100
O         57.56500       44.30000       32.23200
C         56.15300       44.16900       31.88800
O         55.39700       43.58600       32.65000
C         55.62500       44.75600       30.60000
C         55.49100       45.86300       35.18900
C         55.23700       47.27800       35.70100
C         55.59400       48.33000       34.65700
C         54.56400       49.45300       34.61900
C         54.62000       50.19100       33.28800
C         53.73300       51.42800       33.30900
C         52.51400       51.25300       32.41000
C         52.43800       52.34500       31.34200
C         51.01300       52.61500       30.86300
C         50.48600       51.49900       29.96500
C         48.96400       51.39000       30.01100
C         48.46000       50.41300       28.96900
C         55.13200       46.17900       30.82500
C         54.62200       46.77700       29.52000
C         53.65800       47.92500       29.78800
C         53.12800       48.49200       28.48100
C         51.68700       48.06100       28.24900
C         51.44600       47.77900       26.77300
C         50.69700       46.46700       26.58500
C         50.81000       45.96800       25.14900
C         49.77500       44.88800       24.84800
C         48.91400       45.26000       23.64400
C         48.05400       44.08000       23.19300
C         46.72400       44.53400       22.59100
C         46.26100       43.62000       21.45500
C         44.93000       42.96000       21.75400
Li        25.09900       54.34900       57.76100
O         27.21700       40.11100       46.77500
C         26.30100       40.80000       47.60100
C         26.33200       42.28200       47.25600
O         26.18600       43.02200       48.45600
C         25.19300       42.60600       46.28500
O         25.11400       44.01200       45.99200
P         25.71800       44.68200       44.62900
O         25.34400       43.82500       43.43200
O         25.37700       46.16700       44.58300
O         27.31100       44.50500       44.86100
C         28.25100       45.55100       44.62200
C         29.47500       45.25900       45.48200
C         30.03000       43.89500       45.08400
O         30.46300       46.30400       45.40600
C         31.07700       46.60200       44.10800
O         30.40500       47.15500       43.24600
C         32.52700       46.23800       43.84100
C         33.37200       47.46700       43.53500
C         34.79200       47.08700       43.13100
O         30.73700       43.34200       46.18600
C         32.01700       42.67500       45.97200
O         32.06000       41.70600       45.23100
C         33.26500       43.16700       46.67000
C         35.52200       48.29700       42.55500
C         37.04300       48.18500       42.62600
C         37.70700       49.56500       42.58300
C         39.23500       49.47900       42.53900
C         39.89300       50.52600       43.43800
C         41.31900       50.16100       43.86100
C         41.62400       50.57400       45.31000
C         42.91700       49.96200       45.85900
C         42.75700       48.48600       46.25400
C         43.83500       47.96500       47.21700
C         43.61400       46.50000       47.61000
C         42.69900       46.32500       48.80600
C         34.35800       43.51800       45.66600
C         35.73500       43.30100       46.27900
C         36.74500       44.31800       45.76000
C         38.04400       43.63400       45.34000
C         39.27200       44.53500       45.47900
C         39.66300       45.19100       44.15400
C         40.81900       44.46800       43.47200
C         42.14400       45.21000       43.64700
C         43.33700       44.35100       43.22000
C         44.17500       43.89700       44.41700
C         45.05400       42.68600       44.09600
C         45.42700       41.90700       45.36100
C         46.89500       41.47200       45.35700
C         47.20400       40.48600       46.46700
O         60.41400       42.98000       38.69000
C         60.06600       44.02800       39.59300
C         58.82500       43.65500       40.40500
C         57.57800       43.71200       39.52300
O         58.97000       42.35400       40.98200
C         58.39900       42.23500       42.32100
O         58.90800       42.84100       43.25000
C         57.19900       41.34800       42.56100
C         55.89000       42.12500       42.46000
C         55.68300       43.11400       43.60300
O         56.61100       44.57300       40.13000
C         55.21500       44.58400       39.71200
O         54.50400       43.62500       39.96300
C         54.64400       45.77400       38.98000
C         54.50100       44.03700       43.31800
C         54.13300       44.87500       44.54000
C         54.37000       46.36200       44.30500
C         53.23300       47.20300       44.87700
C         53.21800       48.58800       44.24100
C         52.24500       49.51800       44.95600
C         51.02800       49.80100       44.08500
C         50.85500       51.29700       43.83300
C         49.41100       51.67800       43.52400
C         48.98400       51.24800       42.12200
C         47.48100       51.00200       42.03400
C         47.04700       50.78800       40.59900
C         54.01200       46.74000       39.97300
C         53.46800       47.96200       39.24500
C         52.38200       48.64800       40.06200
C         51.81200       49.83600       39.30200
C         50.41300       49.54000       38.77900
C         50.21900       50.13900       37.39100
C         49.59000       49.12700       36.44100
C         49.72200       49.56400       34.98600
C         48.76600       48.78300       34.08600
C         47.83900       49.71100       33.30100
C         47.08000       48.95300       32.21200
C         45.69400       49.54500       31.95500
C         45.29600       49.42800       30.48300
C         44.01800       48.63500       30.30000
C          2.82800       62.20800       65.30900
C          1.31500       62.13600       63.20400
C          2.65800       62.27800       62.49200
C          2.51800       62.68600       61.01900
O          3.06400       61.70400       66.51000
O          0.55700       61.11100       62.59600
C          3.98900       62.67200       64.47000
C          1.56800       61.76700       64.63300
O          4.86600       61.55500       64.25300
O          0.72300       60.98700       65.28800
O          3.49900       63.19300       63.22100
O          2.12100       64.04800       60.92000
C          9.06800       61.10600       63.91800
C          8.47700       61.43900       65.29400
C          6.98400       61.10400       65.30100
C          6.26200       61.86700       64.19800
C          6.91300       61.42600       62.88300
C          6.28600       62.04100       61.62900
O         10.43900       61.51000       63.79100
O          6.38900       61.37700       66.56000
O          8.30000       61.78700       62.91900
O          6.08900       61.04700       60.62500
O          9.12600       60.69500       66.31500
C         11.36900       60.42400       63.73600
C         12.76700       61.00200       63.56100
C         13.71800       60.65100       64.74200
C         15.08300       61.33200       64.42600
C         16.27600       60.37700       64.55500
C         17.58400       61.00900       63.97800
C         18.47800       59.92200       63.35500
C         19.36200       59.19600       64.38800
C         19.33900       57.66000       64.28200
C         20.63100       57.09700       63.68000
C         21.42200       56.27200       64.68400
Li        23.72700       35.64200       65.51900
O         26.88400       30.81900       48.33300
C         25.88900       30.83700       49.34000
C         25.76800       32.22800       49.95700
O         25.57800       32.07600       51.35500
C         24.58500       32.97900       49.33000
O         24.37400       34.28900       49.90000
P         24.90900       35.68800       49.23100
O         24.57500       35.70400       47.74800
O         24.46800       36.87300       50.07300
O         26.51300       35.50400       49.36800
C         27.39200       36.55300       49.76500
C         28.63400       35.88600       50.34100
C         29.31600       35.05800       49.25800
O         29.53400       36.82500       50.94700
C         30.11000       37.86000       50.10000
O         29.38600       38.76200       49.72300
C         31.57300       37.82600       49.71100
C         32.32300       39.02400       50.28500
C         33.77000       39.07300       49.80300
O         30.06600       34.02500       49.89300
C         31.38200       33.64400       49.38800
O         31.47700       33.24900       48.23400
C         32.60400       33.72100       50.27900
C         34.38500       40.44600       50.06500
C         35.91000       40.40200       50.09100
C         36.49300       41.55200       50.90700
C         38.01800       41.56200       50.84300
C         38.61100       42.01600       52.17400
C         40.07200       41.60300       52.34800
C         40.36200       41.10800       53.77100
C         41.68900       40.35200       53.88700
C         41.61200       38.91500       53.35300
C         42.74900       38.01500       53.84800
C         42.63600       36.58900       53.30100
C         41.79200       35.67500       54.16700
C         33.65800       34.65600       49.69500
C         35.05600       34.23000       50.12000
C         35.96000       35.44300       50.31100
C         37.30100       35.23900       49.61300
C         38.46100       35.93800       50.32400
C         38.79600       37.28300       49.67700
C         39.97800       37.19300       48.71200
C         41.25400       37.78700       49.30600
C         42.48200       37.39800       48.47800
C         43.37800       36.40300       49.22000
C         44.34500       35.66800       48.28600
C         44.80800       34.34000       48.88900
C         46.30300       34.10100       48.67700
C         46.69400       32.67000       48.99000
O         59.57800       40.15800       44.60000
C         59.15700       40.43600       45.93500
C         57.95200       39.57400       46.31800
C         56.69600       40.06500       45.59800
O         58.19100       38.19700       46.00800
C         57.66200       37.27200       47.00800
O         58.15500       37.24500       48.12400
C         56.52400       36.33700       46.66500
C         55.16200       36.94800       46.99300
C         54.87200       37.03400       48.49200
O         55.67600       40.35900       46.55500
C         54.27400       40.49700       46.17300
O         53.65900       39.51800       45.77800
C         53.58600       41.84000       46.26900
C         53.62000       37.86400       48.77400
C         53.21100       37.79500       50.24300
C         53.35600       39.14500       50.93200
C         52.18500       39.41400       51.86900
C         52.04400       40.90800       52.13200
C         51.00000       41.18200       53.20800
C         49.75900       41.84400       52.62000
C         49.46600       43.18400       53.29200
C         47.98700       43.56200       53.23800
C         47.56600       44.02500       51.84700
C         46.08100       43.79800       51.59900
C         45.65900       44.42700       50.28900
C         52.93000       42.02500       47.63400
C         52.26300       43.39300       47.73000
C         51.16700       43.39600       48.78900
C         50.47400       44.74800       48.83900
C         49.09400       44.67700       48.20100
C         48.79800       45.95300       47.42400
C         48.22400       45.64100       46.04700
C         48.31200       46.84800       45.11800
C         47.41100       46.68900       43.89500
C         46.43500       47.85600       43.76500
C         45.70900       47.82200       42.42300
C         44.30000       48.40300       42.52000
C         43.88800       49.13800       41.24400
C         42.67600       48.50900       40.58700
Li        23.89100       15.96900       60.72100
O         27.29500       22.39500       44.09100
C         26.28700       21.75500       44.85200
C         26.05600       22.50100       46.16100
O         25.89400       21.55000       47.20500
C         24.81000       23.38700       46.04800
O         24.51900       24.10000       47.26800
P         24.94600       25.65800       47.55800
O         24.59100       26.51300       46.35600
O         24.41800       26.10300       48.91300
O         26.55800       25.53600       47.61900
C         27.34800       26.20400       48.59600
C         28.64600       25.42000       48.72800
C         29.38600       25.44900       47.39700
O         29.45900       25.88800       49.81900
C         29.94400       27.26300       49.77900
O         29.15300       28.16200       49.99600
C         31.40100       27.57000       49.48900
C         32.07800       28.24600       50.67800
C         33.50900       28.68000       50.35900
O         30.21300       24.29400       47.32400
C         31.54800       24.36600       46.74400
O         31.65400       24.72300       45.58300
C         32.77000       23.98300       47.55200
C         34.02200       29.65700       51.41800
C         35.54400       29.71500       51.47900
C         36.03500       30.19300       52.84000
C         37.55300       30.34200       52.86000
C         38.12300       29.94900       54.21800
C         39.61600       29.62000       54.17500
C         39.95600       28.40300       55.04200
C         41.33600       27.81500       54.74400
C         41.36200       26.95200       53.47800
C         42.57900       26.02200       53.40000
C         42.59900       25.19000       52.11300
C         41.83900       23.88300       52.22700
C         33.74500       25.14700       47.68200
C         35.16900       24.63300       47.84200
C         35.98200       25.56100       48.73400
C         37.32800       25.90100       48.10100
C         38.43500       26.12300       49.13400
C         38.66800       27.60900       49.42100
C         39.84700       28.17400       48.63500
C         41.07600       28.38400       49.51600
C         42.31900       28.65100       48.66600
C         43.29200       27.47100       48.71800
C         44.31300       27.49900       47.57900
C         44.88200       26.10600       47.30400
C         46.38700       26.14600       47.04300
C         46.88300       24.83500       46.47000
O         59.09400       34.33000       47.82900
C         58.68000       33.72300       49.04900
C         57.55100       32.72200       48.80200
C         56.25400       33.45700       48.46500
O         57.89400       31.81200       47.75100
C         57.45200       30.44300       47.99700
O         57.96400       29.80100       48.90000
C         56.38500       29.81900       47.12700
C         54.98600       30.02500       47.70500
C         54.71000       29.19000       48.95500
O         55.22300       33.05400       49.37100
C         53.81100       33.29500       49.09400
O         53.26200       32.69200       48.18600
C         53.02600       34.28100       49.92600
C         53.40000       29.60100       49.62600
C         53.00900       28.64700       50.75400
C         53.04700       29.34100       52.11200
C         51.86000       28.94300       52.98300
C         51.61500       29.98500       54.06800
C         50.56200       29.50500       55.05700
C         49.26600       30.29500       54.91200
C         48.86600       30.96600       56.22700
C         47.36200       31.20200       56.34900
C         46.88600       32.36200       55.47600
C         45.42500       32.21200       55.06200
C         44.93900       33.45700       54.35300
C         52.36200       33.58500       51.10700
C         51.59300       34.59200       51.95200
C         50.51200       33.90000       52.77100
C         49.71500       34.91600       53.57700
C         48.33600       35.13800       52.96900
C         47.93600       36.60400       53.07600
C         47.37000       37.12000       51.75900
C         47.36000       38.64400       51.72600
C         46.46600       39.16700       50.60800
C         45.39600       40.11300       51.14700
C         44.66500       40.82000       50.00900
C         43.21600       41.14000       50.36900
C         42.74800       42.46100       49.75600
C         41.58600       42.27000       48.80500
Li        25.59600        2.88600       45.31100
O         28.22900       17.91000       35.56400
C         27.35100       16.82800       35.80500
C         27.09300       16.69300       37.30100
O         27.01300       15.31300       37.61200
C         25.78500       17.40200       37.67600
O         25.45100       17.25200       39.07300
P         25.73800       18.37700       40.23700
O         25.31700       19.74900       39.73500
O         25.18300       17.91600       41.57700
O         27.35700       18.34900       40.28300
C         28.09100       18.35600       41.50100
C         29.44700       17.74700       41.18500
C         30.13500       18.60600       40.12800
O         30.23600       17.57300       42.37500
C         30.62200       18.76300       43.13300
O         29.76300       19.34800       43.76800
C         32.06000       19.25700       43.13500
C         32.67400       19.21900       44.52900
C         34.05800       19.86500       44.57000
O         31.05800       17.79600       39.41200
C         32.38900       18.30500       39.10600
O         32.46800       19.30600       38.42000
C         33.64100       17.60800       39.60300
C         34.49400       20.07400       46.02200
C         36.00600       20.19600       46.19600
C         36.44600       19.85100       47.62100
C         37.94400       20.08800       47.83300
C         38.57700       18.98800       48.68300
C         40.08300       18.84200       48.45800
C         40.53200       17.37600       48.50000
C         41.96700       17.15300       48.01000
C         42.08900       17.22400       46.48300
C         43.34200       16.55100       45.90900
C         43.38500       16.62100       44.37900
C         42.69400       15.45900       43.70000
C         34.53000       18.54400       40.41600
C         35.99200       18.14400       40.28700
C         36.75000       18.43700       41.57300
C         38.06600       19.15400       41.28700
C         39.14900       18.84500       42.32200
C         39.24300       19.92400       43.40200
C         40.38500       20.90400       43.14000
C         41.59600       20.63900       44.03500
C         42.82500       21.41800       43.56500
C         43.87800       20.49900       42.94500
C         44.89100       21.26100       42.09100
C         45.55500       20.34600       41.06400
C         47.05500       20.61600       40.94800
C         47.66400       19.90500       39.75700
O         59.08100       27.68500       46.83600
C         58.71500       26.46800       47.48100
C         57.68100       25.70600       46.65200
C         56.32600       26.41000       46.71600
O         58.11000       25.58200       45.29300
C         57.76300       24.30600       44.67500
O         58.31600       23.28800       45.06100
C         56.74700       24.25000       43.55300
C         55.33400       23.97700       44.06700
C         55.14000       22.56200       44.61300
O         55.34000       25.48500       47.17500
C         53.91300       25.74700       47.04600
O         53.40100       25.74200       45.94100
C         53.07200       26.01100       48.27000
C         53.80700       22.42900       45.34800
C         53.50200       20.97900       45.71700
C         53.46600       20.77900       47.22800
C         52.30600       19.88100       47.64100
C         52.00900       20.05200       49.12400
C         51.03300       18.99100       49.61700
C         49.66800       19.60200       49.89700
C         49.22800       19.35800       51.33700
C         47.70900       19.39800       51.49400
C         47.14900       20.81700       51.43400
C         45.70500       20.83900       50.94800
C         45.12300       22.23100       51.07300
C         52.45100       24.71300       48.76600
C         51.62500       24.97500       50.01600
C         50.57200       23.89300       50.20900
C         49.72500       24.19300       51.43800
C         48.32600       24.64900       51.04700
C         47.83700       25.75600       51.97300
C         47.23500       26.91300       51.18300
C         47.08900       28.16400       52.04600
C         46.15000       29.18100       51.40400
C         44.99900       29.54700       52.33800
C         44.21900       30.74800       51.80700
C         42.74000       30.68900       52.18800
C         42.16100       32.08400       52.43000
C         41.00400       32.39500       51.50300
C          3.76900       -8.60600       46.25800
C          2.23100       -6.62500       46.75300
C          3.34600       -6.20200       47.70700
C          2.75300       -5.45300       48.89800
O          3.38300       -9.86200       46.41300
O          1.74600       -5.47000       46.08100
C          4.80100       -8.07300       47.19600
C          2.73000       -7.65500       45.78000
O          5.74100       -7.27000       46.47200
O          1.87500       -8.15100       44.90700
O          4.12100       -7.31000       48.19200
O          3.55100       -4.30900       49.15900
C          9.92000       -6.64800       47.00400
C          9.45000       -8.07400       46.65900
C          7.99800       -8.12400       46.17400
C          7.06200       -7.27800       47.03700
C          7.65600       -5.86900       47.09700
C          6.77800       -4.85600       47.81900
O         11.13100       -6.69300       47.77100
O          7.55200       -9.47400       46.13000
O          8.92400       -5.93700       47.75500
O          6.80300       -3.63800       47.08600
O         10.25900       -8.63500       45.62800
C         12.12000       -5.74900       47.33600
C         13.36600       -5.87700       48.21100
C         14.50000       -6.55200       47.44700
C         15.83700       -6.35600       48.15300
C         16.94000       -5.98600       47.16000
C         18.31200       -5.95900       47.83000
C         18.99200       -4.59800       47.70900
C         19.78700       -4.27900       48.97600
C         20.25000       -2.81800       49.04100
C         21.77000       -2.66000       49.14500
C         22.15300       -1.46200       49.98800
Li        28.17600        1.16600       25.31500
O         29.47000       19.22900       26.31600
C         28.62400       18.19900       25.84500
C         28.37400       17.17500       26.94500
O         28.42100       15.88400       26.35500
C         27.01100       17.43100       27.60300
O         26.68600       16.47000       28.62700
P         26.91800       16.71700       30.22900
O         26.37500       18.08100       30.61500
O         26.43400       15.51200       31.02200
O         28.53400       16.79500       30.30900
C         29.28600       16.17200       31.34600
C         30.68800       15.95100       30.79700
C         31.30700       17.30300       30.46700
O         31.50700       15.17100       31.68700
C         31.79900       15.70800       33.01700
O         30.91000       15.71700       33.85000
C         33.18000       16.23200       33.36200
C         33.82800       15.39900       34.46000
C         35.16000       15.99300       34.91200
O         32.29300       17.10100       29.46100
C         33.56300       17.81900       29.50300
O         33.53600       19.04100       29.47900
C         34.87800       17.06300       29.54800
C         35.58600       15.36200       36.23900
C         37.08400       15.48700       36.50500
C         37.59200       14.40400       37.46000
C         39.07800       14.58600       37.76000
C         39.78300       13.24000       37.87900
C         41.30300       13.34200       37.72800
C         41.88700       12.17400       36.92400
C         43.31200       12.44200       36.43500
C         43.37200       13.38100       35.22300
C         44.69900       13.31400       34.45300
C         44.73200       14.24800       33.23400
C         44.16600       13.63600       31.96500
C         35.69400       17.41100       30.78600
C         37.18300       17.26800       30.50900
C         37.92400       16.81000       31.75900
C         39.15500       17.67500       32.02500
C         40.29500       16.90500       32.69400
C         40.32500       17.12200       34.20900
C         41.35300       18.17100       34.63200
C         42.60000       17.54800       35.26000
C         43.74300       18.56000       35.36100
C         44.87500       18.24700       34.38000
C         45.80000       19.44200       34.15300
C         46.53500       19.33800       32.81600
C         48.00300       19.75200       32.92700
C         48.64400       19.92800       31.56400
O         59.47500       22.97200       42.27500
C         59.20800       21.58700       42.06900
C         58.21800       21.37900       40.92100
C         56.80900       21.78700       41.34700
O         58.61100       22.11900       39.76100
C         58.37800       21.41700       38.50200
O         59.03200       20.41800       38.24500
C         57.35300       21.93400       37.51600
C         55.97800       21.30000       37.72800
C         55.90700       19.82500       37.33400
O         55.90900       20.69200       41.15800
C         54.46200       20.88000       41.13900
O         53.94400       21.48900       40.21600
C         53.60700       20.32200       42.25100
C         54.60100       19.18500       37.80300
C         54.42500       17.77800       37.23600
C         54.46100       16.71900       38.33100
C         53.41900       15.63500       38.08800
C         53.09400       14.91200       39.38800
C         52.19500       13.70700       39.14500
C         50.79600       13.93600       39.70600
C         50.40600       12.85700       40.71500
C         48.89400       12.65500       40.81600
C         48.20400       13.79100       41.56800
C         46.75200       13.97000       41.13900
C         46.05900       14.98300       42.02600
C         53.13700       18.91500       41.91300
C         52.29200       18.34900       43.04800
C         51.37200       17.24800       42.53800
C         50.49700       16.71300       43.66000
C         49.06300       17.19900       43.51300
C         48.46400       17.50700       44.87800
C         47.74500       18.85000       44.87000
C         47.51700       19.36200       46.28900
C         46.48600       20.48800       46.32300
C         45.33700       20.16300       47.27600
C         44.43200       21.37600       47.48800
C         42.98000       20.97400       47.73800
C         42.28600       21.91600       48.72200
C         41.10000       22.61900       48.09400
Li        30.64200       11.78900        8.24600
O         30.47300       25.89600       19.63700
C         29.70700       25.26400       18.63000
C         29.55900       23.77400       18.91900
O         29.71300       23.08000       17.68900
C         28.18500       23.48900       19.54600
O         27.95600       22.08800       19.81100
P         28.19600       21.36100       21.26500
O         27.54300       22.17300       22.37100
O         27.83100       19.88700       21.19400
O         29.80000       21.49700       21.43900
C         30.61100       20.45000       21.96200
C         32.01800       20.69600       21.43900
C         32.53600       22.02700       21.97900
O         32.89900       19.59600       21.73200
C         33.16600       19.28200       23.13000
O         32.28200       18.74900       23.77400
C         34.51100       19.59700       23.75800
C         35.23900       18.32400       24.16800
C         36.52500       18.63000       24.93200
O         33.51000       22.53700       21.07200
C         34.73000       23.17600       21.55600
O         34.62300       24.17900       22.24100
C         36.09700       22.63200       21.19800
C         37.02400       17.38600       25.66400
C         38.51300       17.45300       25.98500
C         39.12500       16.06400       26.15200
C         40.59000       16.13800       26.58300
C         41.41200       15.03700       25.91000
C         42.91900       15.31600       25.90100
C         43.56500       14.89100       24.57700
C         44.95800       15.49300       24.37800
C         44.92900       16.96400       23.94000
C         46.25500       17.44700       23.33100
C         46.21700       18.91600       22.89800
C         45.70300       19.11100       21.48800
C         36.88100       22.25200       22.44500
C         38.37400       22.41100       22.20000
C         39.16900       21.36200       22.96900
C         40.33900       21.99100       23.72200
C         41.54000       21.05100       23.84900
C         41.58400       20.33900       25.20600
C         42.53100       21.01600       26.19800
C         43.83100       20.23800       26.38800
C         44.87900       21.08600       27.11000
C         46.01400       21.50200       26.17300
C         46.83500       22.67600       26.71200
C         47.55400       23.42600       25.58800
C         48.98200       23.79900       25.97900
C         49.58400       24.78900       25.00100
O         60.27900       21.78800       35.87400
C         60.13800       20.77000       34.88600
C         59.15400       21.19200       33.79300
C         57.72400       21.16600       34.32500
O         59.46100       22.49900       33.30100
C         59.27300       22.63800       31.86100
O         59.99800       22.01900       31.09600
C         58.20100       23.55700       31.31600
C         56.88500       22.81400       31.08500
C         56.92000       21.85700       29.89400
O         56.91700       20.32700       33.49700
C         55.45900       20.38300       33.54100
O         54.88600       21.38100       33.13100
C         54.66300       19.21800       34.08200
C         55.67600       20.97300       29.84900
C         55.60600       20.15900       28.56000
C         55.74600       18.66600       28.83200
C         54.78100       17.85300       27.97800
C         54.54100       16.48300       28.59900
C         53.74500       15.59100       27.65800
C         52.33800       15.34700       28.18900
C         52.05300       13.85500       28.36100
C         50.56700       13.51800       28.26100
C         49.79500       13.95300       29.50300
C         48.32900       14.24100       29.19700
C         47.55300       14.46900       30.47700
C         54.28900       18.25200       32.96400
C         53.51200       17.06600       33.52100
C         52.68400       16.40100       32.42900
C         51.87500       15.24400       32.99600
C         50.40600       15.61900       33.11800
C         49.81000       15.02600       34.38800
C         48.97800       16.05900       35.13800
C         48.73100       15.62200       36.57800
C         47.61200       16.42900       37.22800
C         46.50700       15.52300       37.76600
C         45.51500       16.31200       38.61600
C         44.10300       15.73900       38.52900
C         43.34800       15.87500       39.85100
C         42.10300       16.72800       39.71400
Li        31.89600       30.52800        0.72000
O         30.86800       35.27400       18.18800
C         30.24000       35.35800       16.92300
C         30.20300       33.98400       16.26200
O         30.34700       34.15500       14.86000
C         28.87100       33.29300       16.58200
O         28.74800       31.99600       15.96400
P         29.08100       30.58000       16.72400
O         28.41600       30.56200       18.09100
O         28.81700       29.40000       15.80200
O         30.67400       30.71900       16.97900
C         31.57200       29.62200       16.84200
C         32.94000       30.23500       16.59300
C         33.33800       31.05400       17.81400
O         33.91700       29.24100       16.24500
C         34.20400       28.18600       17.20800
O         33.33900       27.35200       17.41200
C         35.54300       28.13300       17.92400
C         36.32700       26.86900       17.59200
C         37.59300       26.76700       18.43500
O         34.24200       32.07200       17.40500
C         35.41500       32.36500       18.22100
O         35.23100       32.78100       19.35400
C         36.82000       32.18500       17.67000
C         38.23000       25.39400       18.25300
C         39.70400       25.34600       18.64600
C         40.42700       24.15900       18.00100
C         41.90000       24.08200       18.41800
C         42.80600       23.62900       17.26800
C         44.27700       24.02600       17.43800
C         44.89400       24.52500       16.12000
C         46.24800       25.22200       16.29200
C         46.13000       26.64100       16.87400
C         47.36900       27.51600       16.62200
C         47.19100       28.96600       17.09200
C         46.63700       29.89200       16.02800
C         37.66200       31.23200       18.51000
C         39.13300       31.61600       18.43500
C         40.02800       30.38100       18.43500
C         41.18000       30.51100       19.43100
C         42.44200       29.75000       19.01400
C         42.55100       28.39100       19.70900
C         43.47500       28.42400       20.92500
C         44.84700       27.81200       20.64300
C         45.85100       28.15800       21.74900
C         46.90800       29.15700       21.26700
C         47.62800       29.86600       22.41800
C         48.30400       31.16500       21.96500
C         49.70600       31.32600       22.56100
C         50.23600       32.73500       22.38900
O         61.36300       24.72500       29.69600
C         61.24600       24.46400       28.30200
C         60.21000       25.39700       27.66800
C         58.79100       24.98400       28.07800
O         60.46800       26.76900       28.00700
C         60.23000       27.71600       26.91300
O         60.98600       27.73000       25.95400
C         59.07200       28.69100       26.97500
C         57.81100       28.13400       26.31500
C         57.91200       28.03800       24.79300
O         58.02400       24.69000       26.90400
C         56.56900       24.61200       26.90200
O         55.91100       25.62200       27.06900
C         55.88300       23.28900       26.67400
C         56.75200       27.23700       24.20600
C         56.68600       27.36100       22.68500
C         56.94500       26.02300       22.00500
C         55.99000       25.77900       20.84300
C         55.83600       24.28300       20.58800
C         55.09400       24.00900       19.28600
C         53.72100       23.39900       19.55500
C         53.53200       22.07900       18.80900
C         52.07400       21.76200       18.47900
C         51.31600       21.22900       19.68900
C         49.84100       21.60400       19.63800
C         49.09100       21.03300       20.82300
C         55.55800       23.14000       25.19600
C         54.87900       21.80400       24.93700
C         54.06500       21.85900       23.65300
C         53.35700       20.53400       23.42400
C         51.86900       20.65700       23.71100
C         51.35200       19.39200       24.38000
C         50.46000       19.73300       25.56700
C         50.28900       18.52900       26.49100
C         49.13100       18.72200       27.46600
C         48.11300       17.59200       27.34200
C         47.06600       17.66700       28.45000
C         45.69600       17.17000       27.98700
C         44.94000       16.43400       29.09800
C         43.63000       17.10600       29.47200
Li        31.66700       50.21600        5.39700
O         30.49300       43.89100       22.41200
C         29.86000       44.63200       21.38600
C         29.94900       43.87800       20.06500
O         30.04700       44.82200       19.01200
C         28.70100       43.01500       19.88500
O         28.68700       42.34400       18.61200
P         29.09400       40.77300       18.42200
O         28.42700       39.94400       19.50800
O         28.90900       40.34200       16.97700
O         30.67100       40.82300       18.74900
C         31.63100       40.12000       17.97400
C         32.95200       40.83100       18.20700
C         33.30900       40.73900       19.68200
O         33.99900       40.32100       17.37000
C         34.39300       38.92700       17.54300
O         33.62800       38.07000       17.14300
C         35.71700       38.54700       18.18600
C         36.59400       37.76900       17.21300
C         37.89000       37.29500       17.85900
O         34.13100       41.85400       19.98600
C         35.28900       41.69700       20.85100
O         35.10200       41.32000       21.99700
C         36.67900       42.02300       20.34400
C         38.60900       36.34000       16.90700
C         40.07800       36.10900       17.25000
C         40.86800       35.59600       16.04500
C         42.34900       35.42100       16.38500
C         43.26200       35.77800       15.21000
C         44.71500       36.02100       15.62700
C         45.35200       37.19500       14.87800
C         46.60100       37.75500       15.56300
C         46.30600       38.65500       16.77300
C         47.47500       39.58200       17.13800
C         47.22300       40.42300       18.39100
C         46.55700       41.74500       18.07600
C         37.61200       40.82300       20.43300
C         39.04400       41.28700       20.65400
C         40.03100       40.33600       19.99200
C         41.15800       39.96500       20.95300
C         42.47300       39.66200       20.23600
C         42.69300       38.16300       20.03100
C         43.63400       37.56600       21.07700
C         45.03200       37.29400       20.51900
C         46.04000       37.00200       21.63600
C         47.03200       38.15100       21.83400
C         47.71900       38.10400       23.19800
C         48.24700       39.48000       23.60400
C         49.65400       39.39300       24.19100
C         50.05500       40.67900       24.88600
O         61.84000       30.64600       26.53900
C         61.79600       31.26400       25.25700
C         60.69600       32.32100       25.19300
C         59.31100       31.66700       25.25500
O         60.86700       33.26400       26.25800
C         60.49800       34.64400       25.92400
O         61.20100       35.29300       25.15600
C         59.26500       35.27600       26.55200
C         58.01500       35.14700       25.67600
C         58.08700       35.95300       24.37700
O         58.54100       32.09700       24.13000
C         57.10100       31.90800       24.05700
O         56.37200       32.52700       24.81300
C         56.52000       30.95400       23.04400
C         56.98100       35.54600       23.40400
C         56.88100       36.50700       22.22100
C         57.28900       35.84600       20.90900
C         56.39000       36.29300       19.76400
C         56.32900       35.22900       18.67400
C         55.60200       35.73300       17.43200
C         54.26600       35.02300       17.23700
C         54.13200       34.39100       15.84700
C         52.67700       34.17900       15.40800
C         51.96300       33.05800       16.17200
C         50.45100       33.25800       16.24800
C         49.76100       32.02900       16.80600
C         56.19400       31.68400       21.74600
C         55.63300       30.71100       20.71400
C         54.73600       31.41400       19.70400
C         54.11000       30.40100       18.75500
C         52.61600       30.22900       19.01500
C         52.17500       28.78000       18.81700
C         51.28500       28.29700       19.96000
C         51.24100       26.77100       20.03400
C         50.08500       26.27500       20.89900
C         49.14700       25.36300       20.10800
C         48.12500       24.67800       21.01300
C         46.79700       24.42900       20.29600
C         46.10700       23.15400       20.78800
C         44.76300       23.42300       21.44200
O         23.19300       57.14200       28.30900
O         24.84900       50.33200       15.43200
O         39.17300       57.57000       15.99100
O         17.96200       63.88700       23.90200
O         28.55400       54.14500       28.43500
O         26.01100       54.36600       28.81300
O         26.00800       50.51100       18.05200
O         15.50500       50.42100       13.77900
O         62.25400       54.87200       18.82200
O         17.66100       48.45700       14.39900
O         35.37900       63.15800       31.41200
O         15.20600       65.90100       19.94900
O         13.08800       61.05700        9.43100
O         17.15300       55.53700       23.76900
O         24.73400       54.06400       22.20300
O         25.78700       51.71200       21.88700
O         22.24100       49.36900       18.61200
O         21.82200       51.70400       29.35000
O         18.68800       52.16200       18.86500
O         24.53000       49.88900       19.99500
O         13.44500       73.36400       19.60200
O          8.23500       55.70900       12.56400
O         27.71900       68.22300       31.26400
O         12.84500       55.46900       16.41000
O         12.55300       59.36300       24.74900
O         64.88500       54.02600       25.54000
O         15.73100       51.72200       16.94100
O         13.49300       52.88200       17.38900
O         52.62300       62.55800       28.92700
O         24.08900       52.57300       41.71400
O         21.31200       54.97000       43.07000
O         15.28500       62.37000       42.88500
O         26.95400       52.61900       41.48100
O         33.33700       58.78600       49.72200
O         37.03100       63.61200       33.80600
O         14.12000       57.60200       27.02400
O         16.41200       55.85300       26.44700
O          6.35000       61.49500       28.62700
O         50.13200       60.74100       47.58000
O         23.13500       56.30300       36.28600
O         24.45100       55.86000       30.45800
O         21.08500       54.31900       30.74400
O         24.27500       54.41300       34.95600
O         20.33000       49.82200       40.42100
O         23.39900       54.45800       32.20500
O         19.59900       52.76100       27.77700
O         15.80900       55.71300       38.00200
O         10.96000       59.90100       31.93400
O         23.25300       61.88800       52.21300
O         18.64200       54.64100       25.12400
O         10.15800       72.28600       43.87600
O         23.53000       51.65100       35.51100
O         16.05000       55.22900       34.93400
O         16.26700       56.48900       32.35000
O         14.30900       56.56000       29.74900
O         11.93200       55.87700       28.69900
O         12.34000       57.42800       31.12300
O         13.89500       56.27100       33.89000
O         19.67200       44.46500       53.72300
O         22.80300       43.22200       51.61200
O         34.68200       57.85900       51.79800
O         13.31600       50.15000       57.87400
O         25.42700       43.92600       51.51700
O         22.63100       52.75500       43.92500
O         31.39300       44.64400       61.80500
O          7.48700       57.04100       64.66900
O         23.15700       45.39700       65.46300
O         21.22000       49.56500       48.92800
O         19.42300       51.12200       43.00000
O         18.10900       51.26700       39.76100
O         21.53900       50.28300       44.19300
O         12.30300       55.07400       42.20400
O         14.04800       47.62500       49.89100
O         22.70200       49.45900       46.74000
O         19.09900       41.93900       48.39500
O         14.97900       54.35900       40.34400
O          4.16200       56.83100       45.21200
O         22.26900       30.34000       53.98600
O         12.21100       31.44500       62.57300
O         24.93800       30.73100       54.22900
O         30.79800       25.89900       63.22400
O          2.46800       44.12100       55.90500
O          7.85700       31.53700       57.13700
O         32.70500       42.64500       63.04800
O         21.16900       42.29400       53.43000
O         20.05500       36.75500       55.73500
O         21.45500       37.54900       53.58400
O         20.76500       40.19000       52.73900
O         12.95400       33.86700       54.86600
O         18.32400       30.53600       50.43200
O         10.82300       44.88300       52.91500
O         18.52400       41.24300       51.50600
O          7.75300       40.56100       55.87700
O          8.64100       34.31600       65.30900
O         22.23000       24.00000       66.28000
O         13.14000       45.29800       50.99500
O         16.93500       43.42300       48.96900
O         21.71600       36.18600       51.26900
O          6.13300       45.62900       63.38000
O         15.74400       40.10900       51.13900
O         13.83100       39.82100       53.52700
O         19.78200       16.46700       49.57000
O         18.94600       29.78800       56.09300
O         22.75700       18.53300       47.98300
O         25.39300       18.87700       48.92200
O         20.70300       28.17700       54.71800
O          7.26000       23.77100       55.30800
O         12.91600       13.42800       55.39600
O         32.36800       23.54100       63.04100
O          9.83200       29.97700       55.51200
O         20.26600       22.48300       53.00800
O         21.25900       24.78400       51.54200
O         31.44700        9.97200       53.37400
O         13.70800       20.10400       50.36700
O         13.27500       25.81300       53.60000
O         12.41900       31.23000       53.67600
O         20.43500       27.09000       52.67600
O         17.87700       28.15300       52.50000
O         47.67600       12.41400       59.20100
O          2.23900       26.55600       57.39500
O         10.57200       27.73800       53.42400
O          6.62300        8.82000       63.08900
O          8.54400       25.62400       53.63300
O         16.11000       31.66500       51.71900
O         18.63600       19.99300       45.65000
O          8.66000       16.66000       51.12100
O         21.04900        9.12400       36.16700
O         33.64300        2.66100       36.16000
O         21.62200       16.13200       47.49000
O          8.80700       -5.69500       42.68600
O         26.65600       12.26300       37.25900
O          9.93400        7.80200       36.93900
O         49.54000        2.82700       43.26700
O         24.29700       12.00600       36.41900
O         21.19200       12.55100       42.82200
O         56.53500        9.62100       54.85600
O         22.15200       14.92400       43.07300
O         21.49700       16.33600       44.97100
O         33.65400        8.47300       52.29200
O         20.08000       13.88500       35.09000
O          8.66600       11.23800       45.04500
O         10.61500       16.58000       48.41400
O         14.99100       11.23200       38.81200
O         13.06100       18.48400       48.48200
O         10.63400        0.92200       42.33800
O         18.75500       17.18100       45.44100
O          7.49900        8.56100       36.10600
O          9.62100       14.07800       44.37800
O         26.13700       -1.44900       34.50000
O         16.35300       16.70300       43.85900
O         21.03400       16.67300       40.00000
O          2.77700       12.44400       47.80500
O         51.07500        0.53900       41.88000
O         14.34900       14.68100       44.50100
O         16.25100       20.83500       47.56300
O          6.29900       -8.56200       34.86400
O         12.90100       13.96400       42.61700
O         11.56500       15.07400       45.43600
O         28.56300       13.48600       24.25900
O         22.94300       11.18300       21.41700
O         17.17700        4.05000       19.86700
O         25.82100       13.86300       23.30300
O         36.18700        6.83700       18.11500
O         52.02800        4.33900       24.15500
O         35.72000        2.31600       34.42300
O         58.71300        3.47000       38.27300
O          8.76900       -1.74500       32.18300
O         16.72300       11.02300       24.48200
O         11.93600       -5.42700       17.28000
O         12.12700        9.05800       35.16400
O         22.83300       10.53800       35.09100
O         21.41900       16.20400       23.92200
O         23.13200       10.19600       28.58200
O         20.01900       12.03900       33.18000
O         12.27000        8.50000       21.09000
O         24.00300       12.07400       30.25800
O         13.60600        0.27100       21.18400
O         22.57200       11.40700       33.02100
O         62.91000        8.12000       33.93100
O         28.52700        3.86700       13.88200
O         10.31100        7.05300       29.31600
O         13.91400       11.05100       36.17500
O         17.45900       13.76400       35.69900
O          5.01200        5.63200       31.55800
O         54.59900        3.79900       22.06600
O         23.67500       15.09100       28.61700
O          1.75700        4.33600       13.67200
O         10.12500       -3.59200        9.11200
O          9.61100        9.71900       20.65900
O         12.19700        9.83900       31.41600
O         15.09900       11.32700       27.91400
O         13.76400       11.29700       32.99600
O         15.60800       10.32600       30.65900
O         27.32000       22.74900       13.89400
O         19.28700       16.50800        5.26900
O         38.08400       21.13800        5.98300
O         38.16700        8.00600       16.29800
O         29.85900       22.25300       14.76000
O         15.00400        9.86000       -2.62600
O         24.74200       13.23000       21.03000
O         61.01700        8.53400       21.09300
O         54.43800       16.58600        9.41800
O         15.88100       12.12700       22.12600
O         16.15200       12.70400        3.98000
O         21.76900       15.45600       20.73700
O         11.85200        4.30300       10.93600
O         24.48500       15.39300       20.33900
O         30.83500       20.79600        0.77600
O         18.48800       19.44500       12.94400
O         24.88000       16.62000       15.92100
O         14.01300       11.22200       20.20600
O         14.10300       19.38800        8.53500
O         25.40900       17.53900       18.49000
O         22.70400       24.37000       15.73100
O         56.63600       17.57800        8.19300
O         63.00100       11.29000       15.30300
O         17.80100       14.79000       17.71500
O         12.53700       12.89500       14.65400
O         25.00900       20.16400       19.17900
O         19.29300       14.49500       24.00400
O         13.04500       14.25500       16.87800
O         64.77700       15.27500       20.97900
O          7.25900        9.54400       14.98700
O         66.96900       13.33800       18.39500
O         15.21400       14.22500       18.39400
O         59.32000        7.50700       12.06700
O         63.86100       15.80200       13.97200
O         19.43600       16.43800       20.10400
O         11.13200       19.97700        8.75600
O         15.95700       16.12400       16.55700
O         30.48600       35.31500       11.88400
O         38.43600       39.92000        4.76600
O         39.89500       23.23000        5.27200
O         20.22100       35.43400        0.75000
O         27.83000       35.95100       11.87400
O         64.59300       27.89900        6.61200
O         26.12300       23.94400       11.82100
O         54.77000       34.66000        5.52400
O         14.10000       21.42200       -1.91300
O         13.40700       26.47900        5.60900
O         30.37000       42.61600       -0.11700
O         24.62400       21.84100       11.08600
O         67.84400       24.07400       13.35400
O         64.71600       24.91300       13.09600
O         15.66500       21.70500        9.54000
O         17.49700       32.43800       -2.90500
O         17.71700       21.95300       11.80800
O          9.76200       26.38100       -8.06100
O         13.82500       28.17300       -8.25500
O         19.38500       32.91900        8.96700
O         16.45800       37.04000       -9.71600
O         26.04300       29.80700        9.70400
O         16.15800       34.32100       -9.66500
O          7.61300       25.65100       -6.76300
O         65.98900       28.08000       13.37300
O         22.94200       25.30500       13.11600
O         56.77300       36.22700        5.15000
O         62.62100       22.30800       10.22900
O         14.83600       35.34700        4.78800
O          8.84200       23.03700        4.20500
O         67.01600       24.49200       10.96800
O          8.38600       33.55800       -7.43900
O          9.96400       28.63600       -9.87700
O          7.25300       29.54800      -10.90600
O         23.23200       35.81200       13.89100
O          7.59200       35.98800       -7.74500
O         25.75400       30.23300       14.42500
O         25.46100       26.50700       12.49000
O         66.43400       15.92900       18.06000
O          7.86500       35.93800      -10.11300
O         12.32100       36.09700        6.68900
O         20.38700       22.57300       15.28900
O          5.83600       32.04400       -7.03500
O         19.38900       20.07400       15.44500
O         10.50800       26.48500        4.34500
O         65.64700       17.20400       15.28100
O          6.42900       19.68800        5.57400
O         14.45300       26.35000        8.11900
O         16.33900       25.10400        9.61800
O         19.06000       26.73200        9.62900
O         26.75400       28.73100       11.95900
O         12.51900       25.88400       -7.71800
O         21.06000       21.22800       17.44600
O          8.32800       25.98900        2.96500
O          6.79900       27.84900       -4.73900
O         15.58700       23.94300       -7.75600
O         13.80800       18.32900       -7.35800
O         25.26800       36.84200        8.71200
O         29.98300       47.61500       17.44800
O         63.09200       40.61100        9.50700
O         27.30800       47.98200       17.41000
O         19.55200       53.43800        7.69000
O         26.58400       37.93900       10.67500
O         40.15100       42.21900        5.21100
O         64.72100       41.55600       12.29900
O         16.95300       53.16100        3.21400
O         37.44100       56.10400       14.39800
O         13.77300       42.77100        6.83000
O         67.00300       42.39500        9.68500
O         25.78900       39.36900       12.56500
O         18.11700       35.61700        8.98800
O         15.69800       46.57400       -7.54100
O         26.19200       43.11500       18.35900
O         26.01800       43.87100       12.09200
O         26.59500       41.79500       13.40500
O         16.18100       37.04500        7.12600
O         13.88700       50.43200       10.95100
O         65.64400       43.71800       15.40400
O         30.40300       60.19500       11.73500
O          9.39400       40.68700        3.82700
O         22.82100       46.50500       19.02600
O         18.83600       46.72800       12.67100
O         13.95700       43.03100       -2.36400
O         23.14100       38.18800       12.19900
O         21.05100       35.34200       12.48100
O         66.77000       47.78800       10.27400
O         67.33000       41.83700       13.26100
O         14.40900       41.27700        9.21200
O         59.70100       39.99300        2.96500
O         19.26200       40.85500       10.18900
O         10.79900       42.99700        5.93800
O         16.66400       39.41300        9.55300
