6614
XyloseIsomerase
N         35.13400       63.58800       35.51900
C         35.41300       64.77100       34.66000
C         34.23300       65.73100       34.75300
O         33.08700       65.39900       34.40600
C         35.79100       64.27300       33.25400
C         37.09400       63.45900       33.26700
C         34.68200       63.49100       32.56600
N         34.50400       66.92600       35.25500
C         33.39700       67.91400       35.38600
C         33.91600       69.17000       34.71100
O         34.98900       69.67200       35.01300
C         32.93500       68.11700       36.79700
N         33.11700       69.58300       33.74600
C         33.52700       70.75600       32.97300
C         33.26100       71.94500       33.85000
O         32.32800       71.95400       34.65400
C         32.66600       70.64300       31.73100
C         31.35600       70.13500       32.25400
C         31.83600       69.06700       33.26200
N         34.10100       72.90600       33.71000
C         33.93700       74.17400       34.41200
C         34.05000       75.18200       33.31700
O         34.82700       74.99600       32.33600
C         35.05100       74.43300       35.48800
O         36.36200       74.36000       34.82200
C         34.98700       73.43800       36.67400
N         33.47000       76.37700       33.44600
C         33.60200       77.50000       32.51300
C         34.97000       77.83000       31.99200
O         35.16500       78.46500       30.91500
C         32.98700       78.66700       33.32400
C         31.84500       77.97900       34.06400
C         32.54200       76.69400       34.57100
N         36.09400       77.48200       32.55000
C         37.49700       77.52500       32.36700
C         37.94100       76.58400       31.22500
O         38.95600       76.81700       30.53500
C         38.27300       77.19200       33.64900
N         37.13900       75.59400       30.92500
C         37.25000       74.65100       29.86600
C         36.83900       75.34300       28.58100
O         37.36600       74.92100       27.53700
C         36.44200       73.42000       30.15500
C         36.99700       72.57400       31.27700
O         38.22100       72.38200       31.22300
O         36.31400       72.08900       32.18900
N         35.97300       76.33000       28.56000
C         35.51300       77.06300       27.40600
C         34.63000       76.33000       26.40100
O         34.65800       76.62900       25.17500
C         36.74700       77.59400       26.64000
C         37.35000       78.75700       27.32500
N         37.93000       79.78300       26.61400
C         37.47200       79.09200       28.62800
C         38.37000       80.66900       27.52700
N         38.11200       80.25100       28.75600
N         33.82700       75.41000       26.86400
C         32.90200       74.64400       26.02700
C         31.79800       75.55400       25.59900
O         31.14200       76.12300       26.47600
C         32.50400       73.43000       26.82400
C         33.61400       72.43300       27.02300
C         34.50200       72.05900       26.01100
C         33.68800       71.77500       28.28000
C         35.45700       71.11100       26.22400
C         34.65900       70.78400       28.49000
C         35.55600       70.47100       27.45200
N         31.60800       75.79100       24.33200
C         30.52800       76.70300       23.86800
C         29.63900       75.79300       23.04900
O         30.06300       74.68700       22.61100
C         31.10600       77.97700       23.20800
O         31.68200       77.45800       21.96000
C         32.07600       78.79600       24.06400
N         28.36100       76.04900       22.90700
C         27.35300       75.27400       22.21500
C         26.49300       76.20000       21.35100
O         26.24900       77.29100       21.88900
C         26.31200       74.64300       23.14800
C         26.84500       73.45300       23.88100
C         27.56400       73.61100       25.06900
C         26.59300       72.18600       23.34000
C         28.04200       72.50400       25.71400
C         27.10500       71.07400       24.00600
C         27.82400       71.25200       25.18900
N         26.05400       75.74100       20.19300
C         25.21200       76.77100       19.48400
C         23.81300       76.55400       20.00200
O         23.48000       75.42200       20.38300
N         22.96400       77.55300       19.91600
C         21.54700       77.41100       20.27900
C         20.80800       76.45600       19.38700
O         19.85400       75.75000       19.79000
C         21.01400       78.86700       20.24200
C         19.57800       79.03300       20.73500
C         19.45200       78.63400       22.18700
C         19.23000       80.51100       20.52700
N         21.13700       76.26700       18.11400
C         20.56100       75.32600       17.13800
C         20.86100       73.84400       17.42700
O         20.20000       72.88100       16.98800
C         21.02500       75.79200       15.74800
C         22.46400       75.51300       15.43500
C         22.99600       74.38800       14.89400
C         23.58600       76.38600       15.68800
N         24.35000       74.49100       14.77600
C         24.75900       75.70200       15.25400
C         23.70100       77.65800       16.22200
C         26.03800       76.30700       15.31200
C         24.95400       78.20700       16.28400
C         26.12400       77.58800       15.82900
N         21.89800       73.55800       18.17400
C         22.36600       72.19700       18.53000
C         21.35300       71.58600       19.43300
O         20.48900       70.85200       18.96800
C         23.83600       72.38100       18.99500
O         23.72100       72.90200       20.38200
C         24.69400       73.32800       18.09700
N         21.23900       71.93900       20.69900
C         20.24700       71.46500       21.68500
C         18.83500       71.89200       21.30200
O         17.88400       71.17200       21.60600
C         20.55100       71.92500       23.10800
C         21.76700       71.24900       23.70700
C         20.63800       73.44700       23.13800
N         18.67500       72.98800       20.58600
C         17.45300       73.48400       20.02600
C         16.97900       72.70400       18.80000
O         15.79400       72.96600       18.47600
N         17.76400       71.86800       18.12600
C         17.37200       71.08300       16.98900
C         16.26400       70.10200       17.47700
O         16.35300       69.21500       18.33400
C         18.45700       70.24700       16.32200
C         18.04000       69.44100       15.16900
C         17.58400       69.95500       13.98500
C         17.99400       68.00500       15.02100
N         17.27300       68.93700       13.10000
C         17.51800       67.72600       13.70100
C         18.35700       66.94200       15.81000
C         17.39700       66.43300       13.19000
C         18.21600       65.66700       15.31000
C         17.74100       65.41200       14.05200
N         15.19100       70.28100       16.83400
C         13.86800       69.72100       16.93800
C         13.61900       68.41200       16.32000
O         12.58100       67.77500       16.64400
C         12.98600       71.00600       16.56200
O         12.16600       71.25900       17.77500
C         12.29200       71.00700       15.25400
N         14.49600       67.87600       15.47300
C         14.35100       66.55900       14.92900
C         13.83000       66.31500       13.55300
O         13.83900       65.11800       13.14500
N         13.49600       67.35900       12.83000
C         13.02500       67.22400       11.43900
C         14.25200       67.01100       10.54200
O         15.35900       67.59500       10.68500
C         12.20400       68.46100       11.13600
N         14.02500       66.12300        9.59800
C         15.10700       65.74900        8.63400
C         14.40800       65.56800        7.32100
O         13.19200       65.81000        7.17500
C         15.76000       64.51300        9.27300
C         14.99100       63.21700        9.34300
O         13.98300       62.94700        8.65700
O         15.43900       62.31300       10.12600
N         15.11600       65.05800        6.30700
C         14.56000       64.79700        4.96600
C         13.30200       63.95800        4.90400
O         12.45100       64.15400        4.00400
C         15.70000       64.02900        4.25500
C         16.95100       64.72600        4.83600
C         16.58400       64.77100        6.33000
N         13.13100       62.92100        5.72600
C         12.07000       61.99300        5.80600
C         11.12400       62.10800        6.95400
O         10.24000       61.22900        7.07600
C         12.72400       60.56600        5.80300
C         13.32000       60.35400        4.43900
C         12.49600       60.09600        3.34600
C         14.65600       60.53500        4.20200
C         13.00300       59.93900        2.05900
C         15.18500       60.38700        2.94700
C         14.37500       60.08900        1.89800
N         11.21400       63.12500        7.77600
C         10.28900       63.24000        8.89200
C         10.23900       64.50000        9.66100
O         11.24600       65.19600        9.60000
N          9.10900       64.68500       10.32000
C          8.84500       65.89700       11.11400
C          9.54800       65.86800       12.45900
O         10.07900       64.82100       12.87800
C          7.31000       66.08500       11.24100
C          6.72600       66.26100        9.82800
C          6.58600       65.00700       12.01600
N          9.54000       67.03900       13.07500
C         10.17700       67.30200       14.37000
C          9.72200       66.33900       15.42300
O          8.52600       66.00100       15.34700
C          9.84000       68.70100       14.79300
N         10.56100       65.88800       16.33100
C         10.10400       64.94500       17.37200
C         10.07100       65.57800       18.77000
O          9.64600       64.99600       19.76200
C         10.95400       63.63500       17.43300
O         12.32500       64.02500       17.75400
C         10.87100       62.77700       16.16200
N         10.56300       66.78700       18.87400
C         10.70800       67.61800       20.03000
C         10.05500       68.98500       19.77600
O         10.04400       69.41000       18.63600
C         12.18300       67.81600       20.44900
C         12.75400       66.60100       21.14700
C         14.12400       66.74600       21.67500
N         15.07300       66.95900       20.61000
C         15.89400       66.08000       19.99000
N         15.99100       64.80100       20.30900
N         16.66600       66.59700       19.02500
N          9.56500       69.56200       20.86300
C          8.90700       70.87600       20.91300
C          9.99200       71.95800       20.78600
O         11.12000       71.49900       21.07600
C          8.03200       70.97300       22.17300
N          9.72100       73.17200       20.39400
C         10.76100       74.16500       20.28300
C         11.35700       74.41800       21.65100
O         10.65500       74.28100       22.67400
C         10.18900       75.43700       19.65700
C         10.15600       75.24300       18.14200
O          9.08400       75.02800       17.56500
N         11.36600       75.32700       17.53100
N         12.62300       74.82300       21.67300
C         13.30300       75.08500       22.93400
C         13.32700       76.59200       23.18500
O         13.79700       77.23300       22.23500
C         14.68500       74.43000       22.88200
C         15.61100       74.80200       24.05600
C         15.09100       74.20500       25.38000
C         17.01500       74.30000       23.74700
N         12.85700       77.09700       24.32000
C         12.92100       78.51700       24.59000
C         14.40700       78.79400       24.76200
O         15.06800       78.12500       25.54300
C         12.21800       78.88300       25.91200
C         12.17400       80.34400       26.24900
O         13.20000       81.04000       26.19200
O         11.15000       80.96700       26.59000
N         14.88300       79.87500       24.14700
C         16.27400       80.31800       24.26600
C         16.77700       80.65600       25.66500
O         17.98700       80.53100       25.98300
C         16.41500       81.52600       23.30600
C         15.18400       81.62100       22.52600
C         14.13700       80.73900       23.19600
N         15.91100       81.12200       26.55300
C         16.14600       81.47700       27.92700
C         16.45100       80.19400       28.70500
O         17.37700       80.12000       29.52900
C         14.95000       82.25500       28.48900
C         14.95600       82.39100       30.01900
C         14.97400       83.62900       27.82900
N         15.61300       79.19600       28.42600
C         15.74800       77.88700       29.00300
C         17.08200       77.24700       28.60500
O         17.81400       76.81900       29.53600
C         14.64300       76.90700       28.64500
C         14.82200       75.66500       29.56800
C         13.68300       74.74400       29.64400
O         12.73300       75.01700       28.87000
O         13.73500       73.80600       30.43300
N         17.42200       77.23000       27.32400
C         18.67400       76.70800       26.82200
C         19.83800       77.31900       27.59600
O         20.65700       76.56200       28.12300
C         18.78600       77.00700       25.31100
N         19.92700       78.64900       27.66800
C         20.91000       79.42000       28.37900
C         20.98700       78.92600       29.84300
O         22.11000       78.64900       30.30400
C         20.67500       80.95900       28.32400
C         21.59100       81.73900       29.30600
C         20.79800       81.68900       26.99700
N         19.89200       78.86000       30.57400
C         19.88500       78.40700       31.96000
C         20.37600       76.97300       31.97500
O         21.38300       76.72100       32.67500
C         18.55200       78.60200       32.71000
C         18.38100       80.03400       33.12100
N         17.62700       80.96000       32.43500
C         18.92600       80.70200       34.15300
C         17.73200       82.15200       33.00500
N         18.51000       82.00500       34.04200
N         19.84200       76.03800       31.22700
C         20.31600       74.66000       31.21200
C         21.80300       74.46400       30.97400
O         22.50400       73.73900       31.73000
C         19.59400       73.77700       30.21300
C         18.68000       72.75900       30.93900
C         17.32500       73.43900       31.06400
C         16.49700       72.76700       32.15500
N         16.37000       71.30900       31.88200
N         22.31500       75.11900       29.92200
C         23.70800       75.06900       29.51200
C         24.60800       75.59900       30.61500
O         25.64000       74.96700       30.89900
C         23.86000       75.72400       28.12900
C         23.42300       74.99700       26.86700
C         23.74200       75.82700       25.62500
C         24.16800       73.66200       26.78900
N         24.24600       76.70800       31.22200
C         24.99400       77.29600       32.36800
C         24.96900       76.26400       33.48100
O         26.05500       75.93800       34.00700
C         24.43900       78.64500       32.67400
N         23.93700       75.58500       33.89800
C         23.98500       74.56400       34.93500
C         24.87200       73.38200       34.55700
O         25.46600       72.76800       35.51000
C         22.69700       74.04000       35.40700
C         21.48100       74.87200       35.73700
C         20.20100       74.03500       35.71900
O         20.32000       72.76800       35.68600
O         19.09400       74.59700       35.71900
N         25.09000       72.98700       33.31800
C         25.98200       71.92700       32.93800
C         27.41500       72.34500       32.89900
O         28.20300       71.38300       32.79500
C         25.53100       71.30200       31.59900
C         24.08200       70.91700       31.53100
C         23.67100       70.24600       30.21900
C         23.79100       69.95900       32.66300
N         27.83600       73.54800       32.91700
C         29.26800       73.89000       32.87000
C         29.66400       74.60700       31.63400
O         30.84800       75.01100       31.49000
N         28.71400       74.86700       30.74500
C         29.01600       75.59800       29.51000
C         29.63300       76.94200       29.91600
O         29.35300       77.46500       30.99100
C         27.82600       75.82000       28.59400
N         30.42600       77.45800       29.01900
C         31.10600       78.72700       29.16100
C         30.35900       79.72400       28.31400
O         30.34500       80.89900       28.67900
C         32.59100       78.67100       28.75000
C         33.29800       79.96200       28.45800
C         33.83500       80.77000       29.47100
C         33.44000       80.42000       27.14800
C         34.49500       81.96000       29.21100
C         34.08400       81.61300       26.82800
C         34.59100       82.36500       27.87300
O         35.22100       83.54700       27.63500
N         29.77800       79.29300       27.21900
C         29.13700       80.27500       26.33900
C         28.19400       79.58900       25.39300
O         28.12300       78.36600       25.32500
N         27.51900       80.48800       24.68900
C         26.49500       80.16600       23.69300
C         26.69300       80.93800       22.38700
O         27.21400       82.07600       22.36900
C         25.09900       80.42500       24.39200
C         24.04400       79.83800       23.43300
C         24.92100       81.89900       24.78400
C         22.79100       79.19100       23.94400
N         26.34700       80.32900       21.26000
C         26.49400       80.94400       19.95800
C         25.13200       80.81000       19.28700
O         24.27700       79.98800       19.70600
C         27.68000       80.34800       19.10400
O         27.23400       78.98900       18.76400
C         29.08200       80.17500       19.71100
N         24.90300       81.63400       18.25800
C         23.60700       81.52800       17.57300
C         23.73000       82.07000       16.15800
O         24.72600       82.67800       15.85700
C         22.44800       82.09800       18.44700
C         22.60300       83.53700       18.74700
C         23.31400       84.03600       19.85800
C         22.04800       84.43500       17.80500
C         23.49100       85.42400       20.02100
C         22.22900       85.81500       17.97500
C         22.92700       86.32500       19.08800
N         22.74900       81.80400       15.35500
C         22.48800       82.27900       14.02600
C         21.45700       83.41200       14.29800
O         20.53900       83.17700       15.17100
C         21.73500       81.36900       12.99400
C         22.52000       80.16100       12.59700
N         22.45300       78.93800       13.27000
C         23.39200       79.97900       11.59300
C         23.26100       78.07500       12.69800
N         23.83700       78.71100       11.69000
N         21.46800       84.52900       13.61200
C         20.46200       85.59000       13.82100
C         19.07700       84.96900       13.88700
O         18.44700       85.24200       14.95300
C         20.57900       86.63900       12.74600
C         20.42700       86.17200       11.31200
O         20.27100       84.95700       11.05100
O         20.41200       86.92800       10.32800
N         18.55200       84.13400       12.96100
C         17.23100       83.57100       13.05100
C         16.99300       82.46000       14.05100
O         15.81400       81.99500       14.09500
C         16.62800       83.19300       11.68500
C         16.62800       84.40200       10.78700
O         17.11100       84.32800        9.66300
N         16.13900       85.54900       11.23900
N         17.94200       82.01300       14.86800
C         17.78400       80.99800       15.89300
C         16.98300       81.63800       17.06000
O         16.18000       81.02100       17.73800
C         19.07100       80.44200       16.49700
C         19.93400       79.55900       15.64800
O         19.39200       78.95000       14.69100
O         21.13200       79.39200       15.81800
N         17.29400       82.87800       17.28200
C         16.85200       83.85500       18.19400
C         15.71400       84.70500       17.67100
O         14.57300       84.62400       18.18300
C         18.12500       84.67600       18.59500
C         18.07100       85.38700       19.93800
C         17.85800       84.40400       21.09300
C         19.34200       86.19100       20.19500
N         16.01500       85.52700       16.67900
C         15.02800       86.45800       16.10000
C         14.43700       85.96000       14.82100
O         15.12500       85.84100       13.80800
C         15.72200       87.85800       15.95600
C         16.42100       88.32200       17.26600
C         14.69900       88.93900       15.57600
C         17.66200       89.20700       17.04900
N         13.13600       85.65000       14.84900
C         12.44200       85.12200       13.65700
C         12.65300       86.04400       12.49200
O         12.84800       87.26600       12.59100
C         11.02900       84.83600       14.11200
C         10.89900       85.36600       15.49200
C         12.23400       85.71700       15.99800
N         12.58900       85.50200       11.28700
C         12.78300       86.16700        9.99900
C         11.80500       87.32900        9.87500
O         12.26400       88.42300        9.51600
C         12.71200       85.19200        8.83300
C         13.19900       85.73000        7.53200
C         12.34400       86.44800        6.69700
C         14.52100       85.54100        7.14000
C         12.78000       86.98000        5.46800
C         14.99700       86.04300        5.94100
C         14.12900       86.77000        5.11300
N         10.54500       87.12500       10.15100
C          9.49500       88.14400       10.09100
C          9.21600       88.94200       11.36600
O          8.24100       89.72500       11.34400
C          8.18400       87.50900        9.60200
C          7.84300       86.31100       10.48100
O          8.31800       86.15300       11.64000
O          7.05200       85.45300        9.95300
N          9.97300       88.83400       12.42500
C          9.84500       89.55700       13.67500
C          9.70200       91.05900       13.49500
O         10.52700       91.66600       12.81000
C         11.14100       89.30400       14.47000
N          8.75300       91.70800       14.11800
C          8.58400       93.19600       14.05500
C          9.66800       93.77900       14.91800
O         10.31500       92.98800       15.67000
C          7.14700       93.52900       14.56600
O          7.11400       93.16600       15.99500
C          6.04200       92.76800       13.84000
N          9.94600       95.06500       14.98000
C         10.98700       95.62100       15.82000
C         10.76000       95.37900       17.30600
O         11.70700       95.05700       18.07100
C         11.10900       97.12000       15.59700
N          9.52200       95.51700       17.76200
C          9.03100       95.33700       19.12000
C          9.39000       93.91600       19.52900
O         10.10700       93.85400       20.56800
C          7.58200       95.74000       19.24500
N          9.05100       92.90400       18.76300
C          9.44500       91.50800       19.04600
C         10.93900       91.33800       19.20100
O         11.37600       90.69000       20.19800
C          8.95000       90.57100       17.94000
C          7.44300       90.67000       17.84000
C          6.66500       90.09800       16.73600
O          7.37200       89.80900       15.73700
O          5.45600       89.88100       16.70600
N         11.78800       91.89200       18.35400
C         13.23300       91.80200       18.38600
C         13.76800       92.36300       19.67600
O         14.63100       91.73900       20.29100
C         13.85100       92.50000       17.17500
C         15.34900       92.63200       17.08900
C         15.74000       92.88900       15.68200
N         17.11500       92.67200       15.30400
C         18.17800       93.30500       15.81300
N         18.04800       94.24300       16.77400
N         19.40800       93.00900       15.34200
N         13.28900       93.53700       20.08500
C         13.68500       94.14400       21.38000
C         13.32400       93.20800       22.53900
O         14.14000       92.94600       23.41000
C         13.04900       95.48400       21.59300
C         13.43000       96.72100       20.80500
C         14.90500       96.69900       20.45900
O         15.71500       96.61000       21.37100
O         15.05000       96.70400       19.22100
N         12.14100       92.67600       22.60400
C         11.63400       91.74000       23.61200
C         12.53200       90.52400       23.75000
O         13.17200       90.29900       24.81400
C         10.19900       91.36400       23.30300
C          9.55000       90.79300       24.54800
C          9.56700       89.27700       24.44500
C          8.56800       88.48300       25.31200
N          9.14100       88.40000       26.69700
N         12.68000       89.79800       22.63200
C         13.55300       88.62100       22.52200
C         14.94000       88.94800       23.01300
O         15.43800       88.28900       23.96300
C         13.51200       88.05300       21.08600
C         12.06000       87.58300       20.80100
C         14.51500       86.90500       20.82900
C         11.82800       87.25400       19.28600
N         15.56300       89.99300       22.48000
C         16.90600       90.42900       22.90000
C         16.98900       90.76500       24.37800
O         18.01000       90.40900       25.00100
C         17.42000       91.48600       21.95500
C         17.85000       91.15100       20.56200
C         18.48000       92.44200       19.94800
C         18.91600       90.05800       20.46100
N         15.99900       91.39000       24.98900
C         15.81400       91.76500       26.35200
C         15.76300       90.49100       27.19500
O         16.44600       90.25900       28.18900
N         14.93900       89.55100       26.72300
C         14.81500       88.24300       27.38800
C         16.16900       87.53200       27.34900
O         16.52200       87.02700       28.41200
C         13.74400       87.34200       26.82400
C         12.30300       87.71300       27.06500
O         12.01200       88.55400       27.96200
O         11.46000       87.17700       26.31300
N         16.81600       87.49600       26.20600
C         18.09600       86.80600       26.00700
C         19.22100       87.45600       26.75500
O         19.92400       86.70500       27.48700
C         18.41100       86.56200       24.53300
C         19.56600       85.66600       24.19900
C         19.33200       84.28500       24.18900
C         20.85200       86.14700       23.88800
C         20.33400       83.40400       23.85800
C         21.85000       85.21600       23.59400
C         21.59600       83.82500       23.57300
N         19.42100       88.75200       26.69600
C         20.47300       89.40100       27.47100
C         20.23500       89.24300       28.97300
O         21.25700       89.20600       29.71200
C         20.59700       90.86000       27.09600
C         21.06900       91.20300       25.70300
O         20.54000       92.14600       25.06600
N         22.03800       90.51100       25.12300
N         19.03100       89.17800       29.51000
C         18.67300       88.97500       30.89300
C         19.26300       87.61500       31.30900
O         20.08700       87.60000       32.24300
C         17.18100       89.06000       31.21300
C         16.88300       88.82500       32.69500
C         17.29900       90.02800       33.51300
O         16.82000       91.14300       33.26700
N         18.19600       89.87800       34.48300
N         18.92100       86.54500       30.59100
C         19.48700       85.19400       30.79200
C         21.00900       85.26200       30.78900
O         21.67500       84.72200       31.71600
C         18.94500       84.23800       29.73600
N         21.67500       85.88800       29.82600
C         23.10200       86.06400       29.82300
C         23.48900       86.69400       31.15400
O         24.30900       86.04500       31.85200
C         23.62400       86.88100       28.61600
C         23.38000       86.21600       27.26900
C         23.94200       87.05600       26.14100
C         24.01600       84.82600       27.17600
N         22.89600       87.85500       31.55000
C         23.25800       88.46600       32.84800
C         23.01800       87.49600       33.98900
O         23.92200       87.27000       34.84700
C         22.76500       89.88100       33.07400
N         21.90600       86.81700       34.08100
C         21.72500       85.87900       35.19600
C         22.72800       84.75900       35.27600
O         23.17600       84.39900       36.37800
C         20.27000       85.37600       35.23800
C         19.31300       86.55400       35.26300
O         19.64000       87.66900       35.74400
O         18.21100       86.31600       34.76000
N         23.08600       84.11800       34.19000
C         23.97500       82.96300       34.22700
C         25.43400       83.20800       34.13900
O         26.19100       82.33300       34.59000
C         23.60600       82.00100       33.01900
O         24.04500       82.78000       31.84200
C         22.14400       81.65700       33.03700
N         25.83700       84.25700       33.49000
C         27.23600       84.59000       33.27600
C         27.73000       84.04400       31.93400
O         28.96400       84.23500       31.67900
N         26.85700       83.44100       31.12600
C         27.32700       82.88500       29.85900
C         27.79900       84.03800       28.97100
O         27.25900       85.14400       28.99400
C         26.30200       81.95000       29.29800
C         25.88800       80.59300       29.81100
C         25.31100       79.77200       28.64700
C         27.00400       79.74500       30.42500
N         28.84000       83.75500       28.22300
C         29.43600       84.63000       27.22500
C         28.80000       84.16200       25.90900
O         28.08300       83.14600       25.81300
C         30.93000       84.50700       27.15400
C         31.69800       84.39900       28.44400
C         32.05700       85.77800       28.98300
C         31.73200       85.75100       30.47800
N         32.16100       86.99900       31.13700
N         28.93300       84.84500       24.82800
C         28.56700       84.76500       23.45400
C         29.81300       85.10300       22.58200
O         30.03300       86.19300       22.02500
C         27.37300       85.63800       23.04300
C         26.98000       85.41200       21.55700
C         26.10600       85.39300       23.87900
N         30.66300       84.06200       22.42900
C         31.91300       84.19100       21.67600
C         31.83300       84.29400       20.18300
O         32.75300       84.81000       19.53200
C         32.72200       82.98000       22.12400
C         32.03300       82.38300       23.34000
C         30.56800       82.72300       23.00700
N         30.75800       83.77100       19.58700
C         30.54400       83.71100       18.14900
C         29.11800       83.94200       17.79900
O         28.21500       83.50000       18.49800
C         31.02000       82.30500       17.68600
C         31.13700       82.12100       16.22500
S         29.54800       81.46800       15.59600
C         29.62900       79.73300       16.05300
N         28.81600       84.61200       16.71700
C         27.48600       84.88400       16.15700
C         27.66300       84.55200       14.64100
O         28.74700       84.71900       14.08600
C         26.96900       86.30300       16.43900
C         25.74700       86.72600       15.60300
C         26.67000       86.58400       17.91900
N         26.63000       84.08200       14.00900
C         26.57000       83.69200       12.60700
C         25.23100       84.04800       12.01800
O         24.30000       84.49700       12.70700
C         27.09400       82.21000       12.43100
O         27.22000       82.09300       10.97300
C         26.25000       81.15600       13.12500
N         25.03300       84.04700       10.73600
C         23.87100       84.44700        9.99400
C         23.26400       83.24400        9.31500
O         24.00900       82.34600        8.90400
C         24.23300       85.50700        8.86100
O         25.31800       86.32500        9.40200
C         23.09400       86.41000        8.45400
N         21.99600       83.25200        9.15500
C         21.35000       82.11200        8.46100
C         21.12700       82.63200        7.02800
O         20.18900       83.43800        6.85200
C         20.13100       81.67700        9.17900
C         19.31300       80.64300        8.45100
O         19.19300       80.49000        7.21200
N         18.69400       79.84000        9.32700
N         21.92300       82.11700        6.11000
C         21.79900       82.41300        4.68200
C         21.37700       81.09500        3.97400
O         21.72100       80.86100        2.79300
C         23.04200       83.06600        4.13400
C         23.55300       84.40000        4.62100
C         24.87300       84.77800        3.95100
C         22.51700       85.50400        4.42100
N         20.58500       80.28100        4.65400
C         20.14000       79.02300        4.06600
C         18.71000       78.53200        4.23600
O         18.30100       77.73500        3.33500
C         21.10300       77.88500        4.51600
C         21.36600       77.81900        6.01400
C         20.55500       77.04600        6.82700
C         22.45700       78.54800        6.53700
C         20.80500       77.00800        8.18600
C         22.72500       78.51400        7.89900
C         21.88200       77.74200        8.71600
N         17.97500       78.94000        5.27500
C         16.63000       78.35700        5.42800
C         15.50300       78.97500        4.64800
O         14.69000       78.12200        4.18600
C         16.23200       78.19800        6.89500
O         17.37900       78.18800        7.71900
N         15.41400       80.26500        4.56400
C         14.33200       80.91400        3.79900
C         14.41000       80.47100        2.36300
O         15.51800       80.47600        1.80400
C         14.48300       82.50800        3.96000
C         13.30300       83.19800        3.30000
N         12.22200       83.68800        3.98800
C         12.97400       83.46500        2.03700
C         11.33300       84.22100        3.16600
N         11.78400       84.06900        1.95700
N         13.35300       80.24100        1.59400
C         13.32900       79.92300        0.18300
C         14.04900       80.86400       -0.73000
O         14.57300       80.49000       -1.83800
C         11.82800       79.97000       -0.22800
C         11.14000       79.47400        1.01400
C         11.95200       80.19400        2.11400
N         14.24900       82.14300       -0.43800
C         14.96900       83.10900       -1.21700
C         16.46200       82.72100       -1.37000
O         17.07900       83.15400       -2.40200
C         14.84200       84.51200       -0.62100
C         15.71300       84.71100        0.63500
C         15.23700       85.64100       -1.57500
N         17.05500       82.05100       -0.41800
C         18.40400       81.57000       -0.38300
C         18.60100       80.21200       -1.04400
O         19.73100       79.63900       -0.95000
C         18.97800       81.59600        1.05100
C         19.01600       82.93700        1.69500
C         19.61600       84.05100        1.12000
C         18.42200       83.07300        2.96600
C         19.60800       85.29900        1.80100
C         18.35700       84.26900        3.65600
C         18.97000       85.36900        3.05200
N         17.67200       79.63500       -1.83700
C         17.72600       78.38600       -2.54100
C         18.90500       78.24400       -3.49100
O         19.24700       77.04500       -3.73600
C         16.42600       77.99900       -3.26200
C         15.93700       79.02400       -4.28000
C         14.64800       78.73600       -4.95400
C         14.04200       79.86200       -5.78300
N         12.75100       79.24500       -6.37700
N         19.49000       79.31700       -4.01500
C         20.63300       79.32600       -4.87600
C         21.84100       79.95400       -4.18800
O         22.93600       80.12600       -4.75900
C         20.31800       79.84400       -6.26100
C         21.46800       79.59900       -7.22500
O         21.94200       78.42900       -7.22500
O         21.94700       80.57600       -7.85800
N         21.73300       80.27600       -2.90000
C         22.88000       80.89900       -2.17500
C         22.45700       82.29400       -1.72100
O         21.35100       82.74100       -2.05400
N         23.38000       82.84200       -0.96100
C         23.21200       84.22200       -0.46200
C         24.16700       85.03700       -1.39200
O         23.78500       85.58300       -2.43100
N         25.41700       85.05400       -0.97500
C         26.52500       85.70900       -1.64800
C         26.73000       85.20500       -3.09200
O         27.10900       86.11800       -3.89400
C         27.83000       85.63400       -0.89900
C         28.12000       86.28600        0.38100
C         27.20200       87.11700        1.04800
C         29.34500       86.04000        1.00500
C         27.51400       87.72400        2.26600
C         29.63900       86.58000        2.25300
C         28.73500       87.46000        2.89000
N         26.57100       83.94500       -3.43700
C         26.81000       83.49200       -4.79700
C         25.54500       83.10500       -5.55700
O         25.49500       82.32200       -6.54200
C         27.91000       82.36700       -4.87100
O         27.24400       81.15800       -4.43400
C         29.19200       82.64000       -4.06600
N         24.44200       83.67600       -5.13400
C         23.15500       83.49200       -5.78800
C         23.37900       84.07300       -7.18400
O         24.15000       85.04600       -7.37800
C         22.02400       84.20500       -5.03300
O         20.80600       83.88300       -5.66400
N         22.68800       83.56000       -8.16200
C         22.70300       83.97000       -9.57100
C         21.90800       85.28400       -9.60200
O         22.34400       86.21500      -10.31000
C         22.19700       82.88700      -10.52100
C         23.25500       81.92000      -11.01000
O         24.45200       82.02600      -10.71900
N         22.89300       80.88800      -11.78500
N         20.83900       85.39000       -8.80800
C         20.04200       86.60600       -8.71600
C         20.79600       87.63500       -7.84900
O         21.07300       87.51000       -6.65900
C         18.62500       86.32100       -8.28700
C         17.77500       87.54600       -8.09500
O         18.14900       88.51900       -7.39300
O         16.66200       87.56400       -8.62500
N         21.06700       88.77900       -8.43700
C         21.74200       89.93100       -7.88800
C         21.01500       90.64000       -6.77200
O         21.65400       91.12200       -5.82500
C         22.01200       90.95600       -9.02100
C         22.91600       92.09500       -8.56400
C         23.37000       92.98200       -9.67300
N         24.09300       94.08600       -9.04700
C         23.58700       95.29600       -8.74100
N         22.38300       95.68900       -9.05300
N         24.38300       96.16900       -8.13500
N         19.70300       90.71200       -6.86200
C         18.83500       91.39200       -5.84400
C         19.00000       90.54300       -4.59500
O         19.30700       91.12600       -3.52700
C         17.43300       91.67300       -6.31100
O         16.61300       90.47300       -6.29100
N         18.90100       89.22000       -4.68500
C         19.15700       88.29100       -3.59400
C         20.57700       88.39300       -3.09000
O         20.81800       88.45600       -1.84200
C         18.79900       86.82000       -3.99400
C         17.35300       86.77600       -4.48400
C         19.07200       85.91100       -2.78400
C         16.77900       85.41400       -4.91900
N         21.61600       88.56000       -3.93800
C         22.98200       88.67300       -3.41300
C         23.06700       89.88800       -2.50800
O         23.73900       89.92800       -1.44500
C         24.04200       88.61800       -4.44300
C         24.38900       87.54400       -5.42000
C         25.69400       87.73900       -6.11800
N         25.73000       88.61800       -7.28200
C         25.03100       88.49100       -8.42400
N         24.14500       87.52500       -8.67000
N         25.23400       89.40700       -9.37200
N         22.43000       90.99800       -2.87700
C         22.38300       92.29800       -2.17900
C         21.62300       92.15600       -0.85700
O         22.15100       92.67800        0.20300
C         21.86000       93.45000       -3.03300
C         22.69200       93.97000       -4.15800
C         22.01600       94.97300       -5.02900
N         21.79900       96.27800       -4.37500
C         22.71100       97.14100       -4.08200
N         24.00000       96.95500       -4.37400
N         22.35600       98.24700       -3.46600
N         20.50600       91.45800       -0.86400
C         19.81200       91.22300        0.42700
C         20.67700       90.43300        1.42000
O         20.80900       90.80600        2.63200
C         18.47900       90.59200        0.18900
C         17.74600       90.13600        1.38900
C         17.21400       90.99700        2.35000
C         17.57800       88.74900        1.50100
C         16.49900       90.42200        3.43700
C         16.89500       88.18000        2.56600
C         16.36500       89.02500        3.54000
N         21.33500       89.38000        0.94300
C         22.17900       88.51400        1.75500
C         23.31200       89.23300        2.39300
O         23.57100       89.05800        3.61300
C         22.60000       87.32600        0.93900
N         24.00200       90.08600        1.66400
C         25.10100       90.94000        2.19300
C         24.54200       91.97600        3.16500
O         25.17200       92.18400        4.21800
C         25.95200       91.41500        1.05100
C         27.12700       92.33000        1.38400
C         28.07200       91.80200        2.42800
C         27.84800       92.52200        0.03700
N         23.38900       92.56900        2.88400
C         22.67500       93.48300        3.80000
C         22.36900       92.72300        5.11400
O         22.69600       93.19500        6.20900
C         21.39000       94.02800        3.18500
N         21.80300       91.51500        5.05600
C         21.52000       90.69400        6.21900
C         22.75100       90.36400        7.03200
O         22.58600       90.31100        8.26200
C         20.76500       89.44400        5.82900
C         20.28100       88.42800        6.84500
C         19.14600       87.64800        6.25500
C         18.28000       86.81500        7.16800
N         19.05000       85.96600        8.11200
N         23.91700       90.12500        6.49700
C         25.18900       89.86000        7.15100
C         25.68500       91.13400        7.81900
O         26.10200       91.10300        9.01200
C         26.25300       89.25000        6.19400
C         27.68800       89.20900        6.69900
C         25.85800       87.85700        5.74600
N         25.66700       92.27100        7.15100
C         26.11300       93.58100        7.67400
C         25.37100       93.95100        8.94100
O         26.03400       94.31300        9.93700
C         26.04500       94.57800        6.52700
C         27.02700       94.43100        5.36100
C         26.61800       95.35000        4.20700
C         28.43200       94.67600        5.86500
N         24.05100       93.83600        8.98400
C         23.22000       94.08600       10.15000
C         23.60400       93.16000       11.26700
O         23.84600       93.57000       12.41400
C         21.71100       93.96700        9.84300
C         21.31100       95.20300        9.09000
N         20.94200       95.22800        7.78600
C         21.25600       96.48900        9.51800
C         20.66900       96.47400        7.41300
N         20.86700       97.23400        8.45500
N         23.78900       91.86500       10.99300
C         24.24900       90.83700       11.90800
C         25.62500       91.07900       12.48800
O         25.87900       90.60500       13.63100
C         24.08100       89.50300       11.18500
C         23.87700       88.43600       12.23600
O         23.09600       88.61000       13.19500
N         24.55800       87.33300       12.06800
N         26.54500       91.80400       11.88100
C         27.86300       92.19400       12.36100
C         27.72000       93.19200       13.51500
O         28.47800       93.12700       14.52700
C         28.82500       92.70600       11.23700
C         29.10600       91.50500       10.29200
C         30.11200       93.39400       11.78700
C         29.95200       91.78300        9.02800
N         26.73500       94.08300       13.38100
C         26.34800       95.05800       14.40700
C         25.94800       94.28700       15.65500
O         26.55200       94.37000       16.74300
C         25.22100       95.94000       13.87200
C         25.71300       96.96900       12.86300
O         26.89600       97.40400       12.90400
O         24.94900       97.38700       11.98900
N         24.94600       93.43100       15.51700
C         24.45600       92.56000       16.60100
C         25.60600       91.77200       17.20700
O         25.83000       91.83100       18.44900
C         23.24700       91.67600       16.20500
C         22.69400       90.74200       17.32400
C         21.99500       91.58300       18.35800
C         21.79600       89.72400       16.66700
N         26.44400       91.11500       16.38400
C         27.58800       90.33900       16.86900
C         28.44200       91.22300       17.76600
O         28.85000       90.87000       18.86900
C         28.37800       89.66900       15.76400
N         28.74600       92.43400       17.28800
C         29.48800       93.45800       17.97300
C         28.79200       93.76900       19.28700
O         29.40900       93.65100       20.38300
C         29.60400       94.62300       17.01500
N         27.49800       94.09300       19.25400
C         26.78100       94.34300       20.52500
C         26.81000       93.16000       21.44700
O         27.09600       93.42100       22.65100
C         25.40700       94.89900       20.46000
C         24.68200       95.22400       19.17000
C         23.26000       95.68800       19.46300
O         22.50100       95.13700       20.25000
O         23.04100       96.70100       18.74800
N         26.68600       91.89100       21.08900
C         26.78300       90.77700       22.03500
C         28.15200       90.50900       22.61200
O         28.31100       89.59100       23.46600
C         26.26000       89.49300       21.33700
C         24.85000       89.66800       20.84300
S         23.81800       89.51100       22.34900
C         22.32500       88.75000       21.70000
N         29.22700       91.14500       22.20400
C         30.58200       90.97300       22.60900
C         31.22900       89.76600       21.94900
O         32.23800       89.33200       22.55800
N         30.76300       89.22200       20.85000
C         31.37800       88.08500       20.18000
C         32.76100       88.40100       19.68500
O         32.93800       89.55200       19.27500
C         30.45600       87.73100       19.00400
N         33.74300       87.52000       19.67000
C         35.09300       87.76400       19.13600
C         35.15700       87.26400       17.67900
O         35.94300       87.64900       16.81700
C         36.20400       87.01000       19.88900
C         35.99600       85.53000       20.01100
C         36.62700       84.21000       20.18500
O         37.61200       84.02800       20.93800
O         36.06900       83.20800       19.52200
N         34.29100       86.28600       17.34400
C         34.21500       85.64500       16.04000
C         32.86400       85.71700       15.33800
O         31.80000       85.52800       15.95100
C         34.69400       84.11700       16.10900
O         35.93600       84.09600       16.88700
C         34.99200       83.44800       14.78900
N         32.95300       85.94900       14.01800
C         31.74200       85.97800       13.16800
C         31.90800       84.86000       12.10500
O         32.81400       84.92700       11.24700
C         31.60500       87.38400       12.58400
C         30.31500       87.58800       11.83400
C         29.17300       87.93500       12.56400
C         30.27700       87.38800       10.45400
C         27.99500       88.13300       11.89500
C         29.08500       87.56900        9.76500
C         27.92600       87.92100       10.49500
N         31.07900       83.84600       12.13600
C         31.16300       82.70500       11.25600
C         30.28900       82.87200       10.05000
O         29.15400       83.34500       10.05300
C         30.93800       81.39200       12.10200
C         30.59400       80.15500       11.33300
C         32.12200       81.07600       13.03200
N         30.83100       82.39600        8.93200
C         30.24500       82.31100        7.59800
C         30.31700       80.86200        7.13900
O         31.40300       80.29800        6.94600
C         30.96800       83.25100        6.67500
C         30.38200       84.64200        6.81400
S         31.28500       85.72100        5.73100
C         30.83300       87.33700        6.32200
N         29.16600       80.19800        7.07400
C         28.99000       78.82800        6.62500
C         28.18700       79.02200        5.33300
O         26.95300       79.20400        5.45500
C         28.31300       77.81700        7.52200
C         28.03000       76.55900        6.78900
C         28.92100       75.76800        6.11600
C         26.74400       76.00900        6.56700
N         28.26400       74.73700        5.49900
C         26.92200       74.84800        5.77000
C         25.46600       76.33300        7.00700
C         25.87000       74.04700        5.38400
C         24.40900       75.54500        6.62700
C         24.60700       74.41800        5.82800
N         28.81500       78.93600        4.18400
C         28.11500       79.13700        2.90000
C         27.41800       77.91000        2.40600
O         27.75200       77.38200        1.32300
N         26.39700       77.39100        3.04900
C         25.61400       76.25700        2.80800
C         24.87300       76.17200        1.53600
O         24.70400       75.02700        1.08700
N         24.41900       77.29100        0.98200
C         23.64000       77.22100       -0.27100
C         24.48900       77.65900       -1.45100
O         23.90000       77.67500       -2.56300
C         22.36900       78.07700       -0.13400
C         21.37400       77.46800        0.82900
C         20.47200       76.39500        0.33600
N         19.57900       76.04500        1.43200
C         18.94000       74.88400        1.44000
N         19.00300       73.93700        0.47300
N         18.14900       74.53900        2.47800
N         25.73900       77.97800       -1.22500
C         26.67500       78.40200       -2.26200
C         27.23700       77.17300       -2.95600
O         28.17600       76.51500       -2.40900
C         27.85700       79.16500       -1.65500
C         27.53800       80.13600       -0.52700
C         26.44300       81.14200       -0.76900
O         26.37300       81.54300       -1.98000
O         25.71400       81.50100        0.15500
N         26.73300       76.90300       -4.14100
C         27.24500       75.70800       -4.85800
C         26.25700       75.33800       -5.93000
O         25.53700       76.20200       -6.43400
N         26.23500       74.08100       -6.29600
C         25.32200       73.65900       -7.38700
C         25.06700       72.15200       -7.31000
O         25.81000       71.51600       -6.58600
C         25.95100       74.04800       -8.74100
O         27.28400       73.51300       -8.90500
N         24.04500       71.71700       -8.02000
C         23.72000       70.31100       -8.15200
C         24.26800       69.80800       -9.48200
O         24.58100       68.64100       -9.67200
C         22.22300       70.01600       -8.10900
C         21.61000       69.97600       -6.66600
C         21.70200       71.33400       -6.05700
O         21.13100       72.26700       -6.62500
O         22.49000       71.56600       -5.09400
N         24.29100       70.72100      -10.48400
C         24.65400       70.53600      -11.90100
C         25.83300       71.39800      -12.27900
O         25.94400       72.55300      -11.81700
C         23.43900       70.77400      -12.86800
C         22.14500       70.27500      -12.32400
C         22.01800       68.88600      -12.22700
C         21.13200       71.05100      -11.75800
C         20.90700       68.30300      -11.61100
C         19.96500       70.47100      -11.21100
C         19.87200       69.08900      -11.11400
O         18.79400       68.47000      -10.55300
N         26.74900       70.89800      -13.10500
C         27.96000       71.70200      -13.44500
C         27.73400       72.93700      -14.30700
O         28.62900       73.82300      -14.20300
C         29.07800       70.81800      -13.99200
C         29.52900       69.75100      -13.02700
O         29.32100       69.82900      -11.80700
O         30.13100       68.79300      -13.50100
N         26.65400       73.03000      -15.07700
C         26.48300       74.25000      -15.84800
C         25.69000       75.38600      -15.24800
O         25.49700       76.47700      -15.85300
N         25.23600       75.19500      -14.01300
C         24.47300       76.16500      -13.26700
C         25.21200       77.43400      -12.92000
O         24.49600       78.47000      -12.72100
C         23.98000       75.51000      -11.97400
O         22.99100       74.59700      -12.44600
N         26.53000       77.41500      -12.78900
C         27.34600       78.50100      -12.40500
C         28.55200       78.77600      -13.27500
O         29.11700       77.89600      -13.91200
C         28.02800       78.20300      -11.01500
C         27.14300       78.03300       -9.80500
C         26.55600       79.30500       -9.25300
C         25.10500       79.16000       -8.88800
N         24.54500       80.35200       -8.23100
N         28.93900       80.01600      -13.19900
C         30.16700       80.48400      -13.82600
C         30.98700       80.43400      -12.50400
O         30.86400       81.30800      -11.63300
C         30.16700       81.81400      -14.53200
C         31.54800       82.40200      -14.74800
O         32.57800       82.04700      -14.15100
O         31.57900       83.33900      -15.58100
N         31.88700       79.50800      -12.48300
C         32.75600       79.20200      -11.35300
C         33.71600       80.29200      -11.03800
O         34.04200       80.43000       -9.83000
C         33.30400       77.75700      -11.58100
C         32.22900       76.63700      -11.68900
C         32.70400       75.35700      -12.38600
C         31.66600       76.30300      -10.31100
N         34.16500       81.10800      -12.02800
C         35.09100       82.22200      -11.68700
C         34.25700       83.35500      -11.12000
O         34.65300       83.99800      -10.10400
C         35.98900       82.59000      -12.83800
N         33.07700       83.60400      -11.69400
C         32.19000       84.67500      -11.18400
C         31.65600       84.27200       -9.81100
O         31.57200       85.24600       -8.97800
C         31.09000       85.08000      -12.11400
N         31.39300       82.96800       -9.50000
C         30.96600       82.60000       -8.15300
C         32.02400       82.97700       -7.13400
O         31.67100       83.50200       -6.06800
C         30.53600       81.15200       -7.99700
N         33.31000       82.77700       -7.37200
C         34.41800       83.10100       -6.47000
C         34.58400       84.58400       -6.36400
O         34.85500       85.01300       -5.22700
C         35.64000       82.27400       -6.86200
C         35.64300       80.77300       -6.71100
C         36.76600       80.15400       -7.54900
C         35.74800       80.28900       -5.24900
N         34.41700       85.42600       -7.35500
C         34.47000       86.90300       -7.28500
C         33.32500       87.42100       -6.37600
O         33.54100       88.23500       -5.46200
C         34.23400       87.44700       -8.66800
C         35.38800       87.34100       -9.61100
O         36.54900       87.17600       -9.20100
O         35.05100       87.46900      -10.80700
N         32.12200       86.86100       -6.66000
C         30.92000       87.17400       -5.88000
C         31.13200       86.84400       -4.41600
O         30.88600       87.73900       -3.55600
C         29.67900       86.61400       -6.49600
C         29.13000       87.16600       -7.76600
C         28.89800       88.62700       -7.87900
N         30.08300       89.47900       -7.81400
C         30.95700       89.62200       -8.81800
N         30.90000       89.07400      -10.02700
N         31.97600       90.39200       -8.51300
N         31.67600       85.71300       -4.02800
C         32.02100       85.29400       -2.67000
C         33.04700       86.26000       -2.07800
O         32.92700       86.69400       -0.89900
C         32.43500       83.82200       -2.68800
C         32.82900       83.28000       -1.34800
S         31.33900       82.55500       -0.58000
C         31.35000       80.96400       -1.38000
N         34.07000       86.65000       -2.83400
C         35.10100       87.61700       -2.34700
C         34.48000       88.99800       -2.08000
O         34.65600       89.65300       -1.02700
C         36.28900       87.66200       -3.31000
C         37.34900       88.67400       -2.88200
C         38.55700       88.68700       -3.70600
N         38.27000       88.62600       -5.11000
C         39.11800       88.31300       -6.09000
N         40.40200       88.03700       -5.86400
N         38.67500       88.27100       -7.35300
N         33.61800       89.46800       -2.99500
C         32.93900       90.74300       -2.84900
C         32.23100       90.72600       -1.50200
O         32.52000       91.64400       -0.72200
C         31.94000       91.07600       -3.90900
C         31.48900       92.47000       -4.26100
C         30.52000       92.49000       -5.40100
O         30.12200       91.50800       -6.03500
O         30.13600       93.64100       -5.66100
N         31.37000       89.76500       -1.23300
C         30.66300       89.64900        0.03700
C         31.59500       89.59900        1.23100
O         31.45600       90.42000        2.15300
N         32.54300       88.69100        1.32200
C         33.46600       88.55900        2.43900
C         34.30500       89.78400        2.61800
O         34.48700       90.24400        3.74500
C         34.29100       87.24900        2.34900
C         35.39700       87.18600        3.39200
C         33.46300       85.94200        2.41000
N         34.86200       90.39300        1.59800
C         35.68700       91.62700        1.68800
C         34.85700       92.82000        2.12600
O         35.34400       93.64100        2.92900
C         36.44600       91.86000        0.39700
C         37.85700       91.35100        0.39000
O         38.48400       91.30000        1.46200
O         38.36100       91.06600       -0.72600
N         33.61800       92.98400        1.70500
C         32.71300       94.03700        2.11500
C         32.43900       93.91200        3.61700
O         32.46100       94.98000        4.21700
C         31.34000       94.11200        1.39700
O         31.73200       94.03800        0.00200
C         30.47700       95.33200        1.66900
N         32.22900       92.71700        4.14100
C         31.99400       92.39500        5.51700
C         33.16500       92.73300        6.43100
O         33.05700       93.24500        7.55500
C         31.66100       90.88900        5.62800
N         34.33900       92.40500        5.98700
C         35.64000       92.57200        6.62600
C         36.04400       94.04100        6.67400
O         36.55700       94.55500        7.68500
C         36.66900       91.68800        5.89600
N         35.77200       94.73300        5.57500
C         36.01100       96.14700        5.36400
C         35.13000       96.97100        6.32900
O         35.57600       97.93600        6.98600
N         33.86800       96.53300        6.41700
C         32.87400       97.11000        7.30000
C         33.33600       96.87500        8.72300
O         33.35900       97.93700        9.42600
C         31.48700       96.66800        7.02200
C         30.40900       97.21800        7.92200
C         29.91300       98.52300        7.76400
C         29.87600       96.37100        8.92000
C         28.89400       98.97900        8.58900
C         28.87400       96.83200        9.75600
C         28.38600       98.14200        9.58000
O         27.38600       98.54600       10.42600
N         33.78300       95.74400        9.20500
C         34.30400       95.54300       10.56200
C         35.39800       96.53700       10.92200
O         35.43300       97.14000       12.00900
C         34.87300       94.07200       10.73200
C         33.62600       93.16600       10.85700
C         35.94600       93.84500       11.82100
C         33.90300       91.63200       10.87100
N         36.36400       96.65200       10.02900
C         37.53300       97.51700       10.14200
C         37.06600       98.96400       10.28600
O         37.54400       99.69400       11.18200
C         38.45500       97.27600        8.95900
C         39.26600       95.98700        9.02300
C         40.12000       95.82300        7.80400
C         41.33400       94.92000        7.86100
N         41.86000       94.82300        6.44700
N         36.14000       99.39900        9.45500
C         35.48800      100.67000        9.39000
C         34.79600      101.03500       10.70200
O         35.01500      102.16300       11.14900
C         34.45300      100.76200        8.25100
C         35.13500      100.97700        6.92700
O         36.38700      101.06300        6.81200
O         34.40500      101.04000        5.90200
N         34.03700      100.13800       11.27900
C         33.33800      100.32200       12.52700
C         34.21800      100.13900       13.73400
O         33.75100      100.47200       14.85900
C         32.04800       99.50900       12.64400
C         31.00900      100.02100       11.67000
C         30.45300      101.35300       12.04700
C         28.93200      101.38800       12.05500
N         28.42200      101.24300       13.47000
N         35.42400       99.64500       13.65000
C         36.37400       99.42500       14.71500
C         36.06300       98.28400       15.66400
O         36.60400       98.20800       16.78100
N         35.21000       97.35800       15.21900
C         34.74300       96.19000       15.88600
C         35.92400       95.22900       16.05400
O         36.73700       95.03900       15.13400
C         33.60100       95.55700       15.10800
C         32.29200       96.24300       14.99200
C         31.78600       97.13200       15.93800
C         31.48300       95.97900       13.87600
C         30.54600       97.75300       15.80300
C         30.25200       96.60600       13.71600
C         29.78200       97.48600       14.70100
O         28.57400       98.10000       14.53200
N         35.94100       94.61600       17.20900
C         37.01000       93.62700       17.55600
C         36.39600       92.27000       17.30500
O         35.98200       91.58200       18.24500
C         37.35300       94.01500       18.95000
C         38.38300       93.24600       19.68900
O         38.42800       92.01500       19.86800
N         39.32500       94.07000       20.23000
N         36.22100       91.82400       16.08900
C         35.66700       90.69900       15.47800
C         36.51300       90.19800       14.29000
O         36.92700       91.05100       13.49400
C         34.38000       91.07900       14.72100
C         33.01400       91.21500       15.25400
C         32.05900       91.49800       14.10400
C         32.64300       89.93400       15.97000
N         36.62300       88.90500       14.20700
C         37.31500       88.22800       13.08900
C         36.27200       87.33900       12.40000
O         35.33100       86.84400       13.07300
C         38.51700       87.46600       13.55800
C         39.72500       88.30100       13.86100
C         40.90900       87.60000       14.34500
N         40.64500       86.45700       15.21800
C         41.63000       85.58100       15.53300
N         42.88600       85.66100       15.07200
N         41.35400       84.52000       16.34000
N         36.37800       87.16600       11.09700
C         35.46400       86.32500       10.28600
C         36.09200       84.92400       10.19700
O         37.34800       84.90500       10.08500
C         35.19000       86.88400        8.86200
C         34.47200       88.26800        8.91100
C         34.37600       85.96000        7.95000
C         34.56400       89.07400        7.60000
N         35.24800       83.91300       10.26900
C         35.74800       82.54700       10.18400
C         34.85300       81.81800        9.15200
O         33.65900       81.72100        9.38000
C         35.78700       81.78200       11.47200
N         35.51000       81.38800        8.05700
C         34.75600       80.64700        7.03400
C         34.75100       79.15800        7.44500
O         35.72400       78.59800        7.97200
C         35.33500       80.94600        5.69200
C         35.67300       82.31000        5.16700
C         36.26200       82.17300        3.74500
C         34.47500       83.23100        5.19300
N         33.59400       78.54600        7.18900
C         33.33800       77.14600        7.52700
C         33.05300       76.29400        6.28300
O         31.94400       76.25300        5.73700
C         32.16500       76.95200        8.46700
C         31.78800       75.57200        8.93900
C         30.86500       75.57900       10.11700
O         30.65800       76.54200       10.86200
O         30.26300       74.50900       10.30500
N         34.13100       75.57900        5.87900
C         34.02500       74.70700        4.69000
C         33.08400       73.54800        4.92200
O         32.93200       73.12300        6.09800
C         35.44700       74.37600        4.39200
C         36.35700       74.91500        5.43800
C         35.49700       75.59000        6.47000
N         32.47100       73.04200        3.87100
C         31.56800       71.89400        3.85500
C         31.56900       71.43600        2.39000
O         31.39500       72.32100        1.53400
C         30.16400       72.06400        4.37300
C         29.27300       70.78700        4.44000
C         28.03700       71.09900        5.28900
C         27.28600       69.82500        5.63200
N         25.98200       70.17200        6.20300
N         31.83600       70.17600        2.09100
C         31.92300       69.69800        0.71100
C         30.65300       69.51200       -0.07000
O         30.61500       69.58300       -1.33200
C         32.68100       68.34400        0.83600
C         32.19500       67.81700        2.18400
C         32.13300       69.08800        3.07300
N         29.56800       69.24600        0.59700
C         28.22900       68.98900        0.05000
C         27.25100       69.04700        1.23000
O         27.64700       69.07800        2.38300
C         28.18200       67.69200       -0.71800
C         28.37200       66.44700        0.17900
O         29.38500       65.68100        0.07000
N         27.39600       66.23100        1.02900
N         26.01800       69.01300        0.88000
C         24.79800       69.03100        1.70100
C         24.56400       70.30500        2.43000
O         25.32800       70.71900        3.32600
C         24.88200       67.79000        2.60400
C         23.54200       67.11200        2.83800
C         22.95200       67.59600        4.12500
O         23.64500       67.02500        5.02600
O         22.01900       68.40100        4.17500
N         23.54600       71.12300        2.13700
C         22.48000       70.91300        1.20900
C         22.70000       70.94300       -0.27200
O         21.77800       70.48700       -0.96700
C         21.40900       71.96700        1.63500
C         22.10100       73.03400        2.40200
C         23.35300       72.39600        2.89400
N         23.77100       71.51100       -0.79200
C         23.90300       71.50800       -2.28000
C         24.63100       70.24000       -2.65800
O         25.32100       69.65400       -1.81600
C         24.72800       72.70000       -2.68900
C         24.29400       74.04100       -2.24700
C         22.94100       74.47200       -2.62300
N         22.53300       74.26600       -3.98600
C         22.43700       75.19500       -4.96600
N         22.73300       76.45400       -4.86300
N         21.96500       74.71100       -6.12800
N         24.56600       69.86500       -3.91700
C         25.28000       68.70300       -4.48800
C         26.78700       68.89800       -4.32100
O         27.51800       67.91700       -4.01900
N         27.27600       70.13400       -4.57800
C         28.65500       70.52100       -4.47500
C         28.67200       71.92900       -3.83100
O         27.92500       72.75600       -4.40700
C         29.46600       70.59900       -5.77700
C         29.85300       69.25500       -6.33800
O         30.62900       68.46800       -5.77300
O         29.27900       68.88300       -7.36300
N         29.46200       72.10800       -2.79100
C         29.53800       73.43100       -2.14900
C         30.87900       74.14000       -2.49100
O         31.81600       73.36000       -2.56200
C         29.30800       73.36300       -0.60900
C         27.81800       73.05100       -0.32100
C         29.72800       74.64100        0.17600
C         27.65300       72.67600        1.19200
N         30.84600       75.43100       -2.66400
C         32.07400       76.16400       -2.97000
C         32.90600       76.16800       -1.73200
O         32.34400       76.23900       -0.65800
C         31.79300       77.56500       -3.52400
C         30.99200       77.59200       -4.80000
C         31.21300       76.69400       -5.84500
C         29.99300       78.54700       -4.94300
C         30.45400       76.72800       -7.02000
C         29.21600       78.56600       -6.10700
C         29.44100       77.68300       -7.15800
N         34.20500       76.14600       -1.82100
C         35.24500       76.11700       -0.78300
C         34.95800       74.93300        0.07500
O         34.58800       75.09000        1.22300
C         35.08900       77.43700       -0.08200
C         35.16800       78.80900       -0.73900
C         35.26100       79.82900        0.39700
C         36.28600       78.87600       -1.75500
N         35.07600       73.73800       -0.46800
C         34.65400       72.53200        0.24000
C         35.40100       71.87800        1.33300
O         34.85400       70.89600        1.91400
C         34.47900       71.54100       -0.96600
C         35.47800       71.91500       -1.98100
C         35.49900       73.45700       -1.87900
N         36.63100       72.23100        1.59100
C         37.53000       71.61400        2.54800
C         38.37300       72.65100        3.24100
O         38.47300       73.80700        2.74300
C         38.56300       70.60800        1.83800
O         39.53900       71.41200        1.11800
C         38.10500       69.52700        0.86900
N         39.02400       72.35100        4.33000
C         39.95900       73.38000        4.92800
C         40.90600       73.90800        3.86400
O         40.98600       75.15200        3.79500
C         40.70200       72.75800        6.11500
C         42.05100       73.35400        6.46600
C         39.80800       72.73700        7.35200
N         41.62400       73.13900        3.02200
C         42.54300       73.75500        2.05800
C         41.87900       74.75000        1.14100
O         42.50300       75.78200        0.91300
N         40.68400       74.49600        0.61300
C         39.96300       75.41400       -0.26000
C         39.60900       76.69900        0.49100
O         39.77300       77.80800       -0.12200
C         38.75600       74.85100       -0.99100
C         39.01500       73.62800       -1.81700
N         39.16800       72.34700       -1.32300
C         39.16300       73.55300       -3.18200
C         39.38600       71.53000       -2.33300
N         39.38600       72.20300       -3.45800
N         39.17300       76.64900        1.77400
C         38.93200       77.89500        2.47500
C         40.21700       78.67600        2.66000
O         40.24000       79.91800        2.39200
N         41.30600       78.04300        3.10900
C         42.59600       78.78400        3.26700
C         43.05800       79.41500        1.95400
O         43.50300       80.58700        2.01700
C         43.71400       77.94100        3.90200
C         43.53400       77.26600        5.25800
C         44.41000       76.05500        5.42100
C         43.85300       78.27900        6.37800
N         43.00500       78.78200        0.79800
C         43.37800       79.26600       -0.51700
C         42.62600       80.54600       -0.85800
O         43.18800       81.55600       -1.29400
C         43.08900       78.29400       -1.67500
N         41.32100       80.55400       -0.65900
C         40.44000       81.68200       -0.92300
C         40.82000       82.87900       -0.07600
O         40.88100       83.98900       -0.61000
C         39.02200       81.31100       -0.64600
C         37.97600       82.36100       -0.73500
C         37.46300       82.71700       -2.00100
C         37.49000       82.90500        0.47200
C         36.46200       83.67300       -2.03900
C         36.46200       83.85700        0.41900
C         36.01000       84.24200       -0.84100
N         41.08300       82.68600        1.20700
C         41.49800       83.77300        2.10800
C         42.63500       84.57000        1.52100
O         42.58400       85.80700        1.51100
C         41.75000       83.22700        3.56100
C         40.36700       82.88000        4.11300
C         42.52500       84.23200        4.48300
C         40.46700       82.02900        5.38600
N         43.67600       84.00000        0.94300
C         44.79800       84.62200        0.29800
C         44.47200       85.45200       -0.90900
O         45.40800       86.13700       -1.37400
C         45.87300       83.60600       -0.11600
C         46.36800       82.67500        1.01400
C         46.77500       83.37100        2.26600
O         47.50100       84.34700        2.04400
O         46.46500       83.15100        3.40700
N         43.33600       85.54600       -1.47700
C         42.86800       86.28000       -2.60200
C         41.99100       87.45000       -2.19200
O         41.51200       88.17800       -3.05100
C         42.04500       85.29100       -3.51200
C         42.80800       84.02900       -3.94200
C         44.06300       84.44400       -4.70900
O         43.93300       85.36700       -5.52400
N         45.20300       83.85400       -4.42300
N         41.75300       87.59000       -0.92900
C         40.93600       88.61600       -0.32600
C         41.74800       89.88100       -0.04800
O         42.92700       89.84000        0.35000
C         40.34300       88.01400        0.96200
C         39.25900       86.97400        1.05400
C         38.80700       86.86500        2.50900
C         38.07600       87.35200        0.20400
N         41.02000       91.00000       -0.17400
C         41.63300       92.28800        0.12800
C         41.80200       92.31600        1.63700
O         42.90100       92.65200        2.06500
C         40.92500       93.53500       -0.31200
C         41.65400       94.88100       -0.07500
C         40.80400       96.14000       -0.07100
O         39.66700       96.11600       -0.57500
O         41.36700       97.12300        0.50400
N         40.78500       91.95100        2.42500
C         40.90100       91.99900        3.90500
C         41.04900       90.68900        4.59900
O         40.43800       90.40000        5.66200
C         39.67600       92.74000        4.56800
C         39.51500       94.08200        3.90800
N         40.36600       95.13000        4.12500
C         38.62800       94.41800        2.94300
C         39.95200       96.09300        3.32200
N         38.91900       95.73000        2.60800
N         41.93700       89.82400        4.12200
C         42.26100       88.49500        4.56300
C         43.00300       88.37600        5.84500
O         43.17000       87.29900        6.48800
N         43.48000       89.46900        6.42500
C         44.18300       89.52100        7.70600
C         43.21400       89.25200        8.85500
O         43.68100       88.79800        9.90400
C         44.95000       90.82900        7.82100
C         44.16600       92.09700        7.75900
O         43.35200       92.35500        6.87600
O         44.36500       92.97900        8.64800
N         41.94200       89.55100        8.70500
C         40.92600       89.30600        9.71200
C         40.04400       88.12100        9.29500
O         39.02600       87.84900       10.00400
C         40.09800       90.57400       10.14500
C         39.23200       91.20700        9.05300
C         41.03300       91.63100       10.78500
C         38.21500       92.25200        9.58400
N         40.36000       87.42400        8.18200
C         39.53500       86.28500        7.75800
C         40.34700       85.01200        8.02500
O         41.57200       85.03200        7.76300
C         38.97800       86.44600        6.36400
C         38.04200       85.22800        6.08500
C         38.23100       87.73800        6.05100
N         39.72700       84.00200        8.59100
C         40.35700       82.73700        8.96600
C         39.33600       81.58800        8.85500
O         38.28800       81.76300        8.19300
N         39.64500       80.44900        9.48200
C         38.71500       79.29600        9.37900
C         37.97200       78.88300       10.63300
O         38.40000       79.10400       11.76900
C         39.47500       78.06000        8.84600
C         40.03200       77.90500        7.45600
C         40.28500       76.41100        7.19100
C         39.12300       78.32600        6.32400
N         36.88000       78.14500       10.41200
C         35.99200       77.50000       11.38300
C         35.71000       76.07800       10.86700
O         34.62700       75.78200       10.34000
C         34.68600       78.30300       11.63700
C         33.82600       77.61600       12.69900
O         34.38100       77.35900       13.78600
N         32.57600       77.27600       12.45000
N         36.74400       75.22700       10.97000
C         36.64200       73.85300       10.44300
C         35.68300       73.03700       11.28800
O         35.74000       73.30100       12.50400
C         38.04400       73.26700       10.55800
C         38.96600       74.34600       10.98000
C         38.06900       75.43200       11.55800
N         34.96400       72.12200       10.69300
C         34.08500       71.28500       11.47600
C         34.52500       69.85300       11.26400
O         34.73700       69.42200       10.10000
C         32.64400       71.37400       11.02900
C         31.63300       70.62000       11.88800
C         30.27100       71.26000       11.74500
O         30.13700       72.47400       11.87500
O         29.41600       70.36900       11.48100
N         34.67800       69.03300       12.28100
C         35.05300       67.63400       12.20100
C         34.38400       66.78200       11.13200
O         35.01300       66.08400       10.31100
C         34.82200       66.79600       13.56000
O         35.33500       67.57700       14.66300
C         35.45400       65.39200       13.52800
N         33.06800       66.70400       11.16000
C         32.19900       65.91700       10.30000
C         32.28300       66.32700        8.84100
O         32.18500       65.48100        7.94800
N         32.41800       67.60700        8.56800
C         32.53900       68.18600        7.25400
C         33.77800       67.65400        6.53800
O         33.62100       67.16500        5.39800
C         32.61500       69.68300        7.32000
C         31.38300       70.34900        7.77800
N         31.32200       71.74400        7.68400
C         30.19800       69.94900        8.28200
C         30.14700       72.15100        8.11800
N         29.45900       71.08800        8.46600
N         34.93600       67.67600        7.16500
C         36.16000       67.16300        6.57900
C         36.11900       65.67100        6.35900
O         36.63100       65.21200        5.33700
C         37.41400       67.53100        7.39400
C         37.59800       69.04700        7.53000
C         37.70100       69.80100        6.20000
O         38.63700       69.53100        5.42600
O         36.78500       70.59900        6.00000
N         35.50700       64.91100        7.22800
C         35.33500       63.47400        7.20000
C         34.33400       63.05600        6.15700
O         34.42800       61.89300        5.64300
C         35.10100       63.00500        8.60600
C         36.08700       63.25300        9.67200
C         35.72400       62.75000       11.06800
O         36.63400       62.69600       11.93000
N         34.49200       62.41700       11.37400
N         33.44400       63.86200        5.64600
C         32.49700       63.75100        4.58700
C         33.20400       63.74800        3.21900
O         32.54900       63.44100        2.21900
C         31.47700       64.88200        4.58200
C         30.34200       64.67700        5.54600
S         29.35000       66.23100        5.65300
C         28.28000       66.02800        4.23100
N         34.44000       64.12000        3.04100
C         35.33400       64.13200        1.91800
C         36.38200       63.01300        2.13000
O         37.28700       62.71600        1.35700
C         36.08600       65.43000        1.66100
N         36.33500       62.32700        3.25700
C         37.12900       61.29000        3.78500
C         38.53200       61.74600        4.19000
O         39.46600       60.90300        4.15400
N         38.71700       62.98500        4.56300
C         39.98100       63.59500        4.91000
C         40.24100       63.43700        6.40100
O         39.30100       63.15100        7.14600
C         39.88000       65.04300        4.43100
C         39.60500       65.44400        3.01200
C         39.62500       66.93800        2.74500
C         40.68200       64.84700        2.07000
N         41.47400       63.62600        6.78900
C         41.94600       63.53200        8.18900
C         41.78900       64.91400        8.77700
O         42.53100       65.81800        8.37500
C         43.37000       63.02900        8.20200
C         43.86400       62.64400        9.58400
O         43.72200       63.38600       10.55100
N         44.40900       61.45300        9.60900
N         40.81300       65.00400        9.68300
C         40.46100       66.27500       10.34300
C         41.63400       66.87700       11.11300
O         41.90300       68.10400       10.96200
C         39.19400       66.16300       11.14400
C         38.80600       67.40200       11.92100
C         38.31700       68.51700       11.26900
C         38.94400       67.40500       13.30400
C         38.02100       69.65200       12.01600
C         38.57300       68.51100       14.06100
C         38.11100       69.63300       13.40000
N         42.39000       66.08700       11.86600
C         43.58800       66.46600       12.58400
C         44.59900       67.08100       11.61500
O         45.05800       68.21800       11.89600
C         44.32600       65.35900       13.42800
O         43.27200       64.67400       14.15200
C         45.41300       66.04300       14.31500
N         44.86200       66.42700       10.46500
C         45.76300       67.00100        9.45300
C         45.26500       68.35300        8.93800
O         46.10400       69.28000        8.70400
C         46.03200       66.11900        8.25000
C         46.80900       64.88600        8.48800
N         47.40800       64.19200        7.46300
C         47.08700       64.18200        9.62100
C         48.02500       63.11500        7.93600
N         47.83600       63.09300        9.24600
N         43.97100       68.52600        8.75400
C         43.33100       69.73300        8.26400
C         43.43900       70.84400        9.26800
O         43.75900       71.98700        8.91100
N         43.19600       70.52800       10.55800
C         43.36500       71.64800       11.53500
C         44.83100       71.89500       11.70100
O         45.13100       73.08200       11.94500
C         42.49000       71.53300       12.81800
C         42.84800       70.37300       13.75700
C         41.02500       71.51500       12.27400
C         42.14100       70.31000       15.11000
N         45.77900       70.99500       11.54400
C         47.22200       71.25200       11.62700
C         47.66600       72.22900       10.53700
O         48.51400       73.12100       10.78100
C         48.03000       69.95300       11.65200
N         47.12500       72.16500        9.33000
C         47.45700       73.08800        8.23500
C         46.87600       74.45800        8.55300
O         47.55600       75.45900        8.30400
C         47.02300       72.53700        6.86300
C         47.71800       73.25800        5.71500
C         47.38400       72.76800        4.34700
O         46.96000       71.64800        4.09800
N         47.52300       73.57700        3.32300
N         45.66500       74.51600        9.13600
C         44.98800       75.76700        9.50800
C         45.83900       76.42500       10.59700
O         46.14800       77.62300       10.45300
C         43.51000       75.65800        9.81300
N         46.26200       75.65200       11.60500
C         47.13000       76.14100       12.68500
C         48.47300       76.68200       12.20600
O         48.97100       77.78600       12.49700
C         47.29300       75.04600       13.75400
C         46.52800       75.18500       15.03500
C         47.01000       74.14800       16.06700
C         46.75000       76.55700       15.68700
N         49.11300       75.88600       11.34500
C         50.38800       76.14200       10.68700
C         50.22800       77.41000        9.89200
O         51.17100       78.21500       10.01300
C         50.93000       74.97100        9.92200
C         52.20500       75.14100        9.18000
C         53.48100       75.03200        9.67100
C         52.33600       75.43900        7.77600
N         54.39700       75.26000        8.66600
C         53.72000       75.48900        7.49100
C         51.43100       75.66800        6.74700
C         54.19000       75.74800        6.20700
C         51.88900       75.90700        5.45500
C         53.26400       75.95000        5.19700
N         49.17600       77.78900        9.20800
C         49.03600       79.07200        8.52400
C         48.51200       80.17800        9.42700
O         48.18600       81.29900        8.94500
C         48.07200       78.89700        7.34100
N         48.33500       79.93600       10.71200
C         47.80700       80.78600       11.76700
C         46.40800       81.19600       11.39300
O         46.01300       82.37500       11.40000
C         48.78300       81.93100       12.01100
C         50.12100       81.40200       12.57800
C         51.00600       82.42000       13.26800
O         51.36100       83.37600       12.52300
O         51.31800       82.25700       14.45300
N         45.54100       80.26100       10.99200
C         44.19800       80.67900       10.53800
C         43.13500       79.86900       11.24200
O         41.96000       79.86400       10.76700
C         44.11000       80.56500        9.03500
C         44.88700       81.43600        8.06500
C         44.47700       82.86800        8.18700
C         44.83300       83.78400        7.05600
N         44.26900       85.13000        7.37100
N         43.51000       79.19500       12.33900
C         42.46400       78.41100       13.04300
C         41.83400       79.36300       14.07400
O         42.32700       79.43800       15.19600
C         43.05200       77.12800       13.59100
C         42.10200       76.13200       14.27200
C         41.09100       75.58200       13.29400
C         42.84000       74.97200       14.95700
N         40.79500       80.06500       13.69400
C         40.05800       81.04600       14.46300
C         38.93900       80.48900       15.33100
O         38.53100       81.12100       16.29300
C         39.49400       82.15600       13.53700
C         40.45300       83.15000       12.93700
C         41.84000       83.03600       12.92200
C         39.91800       84.26600       12.29900
C         42.69700       83.92200       12.34800
C         40.75000       85.22700       11.70900
C         42.16200       85.05500       11.72300
N         38.43400       79.33300       15.02600
C         37.32500       78.70200       15.71600
C         37.28700       77.25900       15.27300
O         37.96200       76.85300       14.34700
C         36.03200       79.49600       15.38100
C         34.99500       79.41200       16.43700
N         33.91100       78.57800       16.31900
C         34.87000       80.01000       17.64400
C         33.14400       78.66000       17.39900
N         33.71000       79.53500       18.22400
N         36.46000       76.47400       15.92100
C         36.27800       75.04800       15.60200
C         34.85000       74.64900       15.91400
O         34.29100       75.20100       16.88600
C         37.38800       74.22700       16.33900
C         37.67900       72.90400       15.60600
C         37.15200       74.00500       17.85200
C         39.02700       72.26100       16.03400
N         34.30500       73.73400       15.10800
C         32.97700       73.13000       15.28900
C         33.28500       71.61100       15.50700
O         33.69100       70.94600       14.53800
C         32.03700       73.33600       14.17100
C         31.23100       74.58000       14.01700
O         31.54800       75.62500       14.61700
O         30.25200       74.57300       13.24600
N         33.14200       71.15300       16.74000
C         33.40700       69.74300       17.06100
C         32.12800       68.92900       17.03500
O         31.10700       69.38900       17.52500
C         34.11500       69.68000       18.41800
C         35.40500       70.39600       18.63200
C         35.86500       70.28300       20.07400
C         36.53300       69.82100       17.75700
N         32.17100       67.74700       16.50900
C         31.05300       66.76800       16.41000
C         31.73000       65.46100       15.91500
O         32.98400       65.39900       15.79300
C         29.90500       67.26900       15.55800
C         30.26800       67.54800       14.11500
O         31.26900       67.03900       13.55800
N         29.50400       68.36400       13.41700
N         30.87700       64.50100       15.65000
C         31.29700       63.19600       15.19100
C         30.49400       62.83800       13.94000
O         29.37300       63.25300       13.71300
N         31.16500       61.99600       13.15500
C         30.60500       61.53100       11.87300
C         31.03300       60.11500       11.73200
O         32.19300       59.84300       12.04800
C         31.13400       62.48600       10.77200
C         30.85400       62.06800        9.33600
C         29.40000       62.30000        8.98700
O         28.64300       63.02500        9.58800
N         29.04700       61.55700        7.93900
N         30.15300       59.24600       11.27300
C         30.56900       57.83700       11.09800
C         30.60700       57.54500        9.60600
O         29.76400       56.82900        9.06500
C         29.73800       56.94900       11.96700
C         29.77700       57.13300       13.50700
C         28.80600       56.18100       14.13100
N         29.29300       54.79800       14.04100
C         28.67500       53.65100       14.42500
N         27.45100       53.71500       14.94100
N         29.25500       52.45500       14.26600
N         31.55600       58.05200        8.85600
C         31.76800       57.84500        7.44700
C         31.42600       58.85300        6.43200
O         31.05300       59.99000        6.79300
N         31.53700       58.46100        5.15900
C         31.21500       59.36300        3.99100
C         29.71800       59.15800        3.71400
O         29.27600       58.15000        3.15000
C         32.11700       59.13100        2.75600
C         33.62800       59.38200        3.03000
C         31.76000       60.03100        1.56000
C         34.56400       58.84100        1.92700
N         28.92500       60.12100        4.15800
C         27.45700       60.06500        4.05700
C         26.91300       61.38200        4.52300
O         27.77600       62.29600        4.66300
C         26.91800       58.83900        4.85300
C         27.15900       58.79000        6.33300
C         26.58700       57.73800        7.16800
C         27.32200       56.43200        7.25900
N         26.77600       55.53700        8.28400
N         25.62700       61.52500        4.73900
C         24.97600       62.81200        5.18300
C         25.65800       63.34900        6.41300
O         26.28100       62.54400        7.12400
C         23.44000       62.57500        5.35800
C         23.10700       61.60700        6.49600
C         23.19600       60.23400        6.48100
C         22.74500       62.20100        7.72600
C         22.94000       59.46700        7.59000
C         22.44900       61.45400        8.86100
C         22.55900       60.08700        8.79400
O         22.30800       59.30700        9.91000
N         25.62800       64.63900        6.73800
C         26.30000       65.07500        8.00300
C         25.35800       64.65200        9.16000
O         24.20000       65.06300        9.29500
C         26.84100       66.44400        8.11300
C         25.95500       67.63600        7.95700
O         25.19300       67.59200        6.95100
O         26.07300       68.61500        8.79300
N         25.92400       63.75900        9.95500
C         25.26400       63.15600       11.08900
C         25.21500       64.07600       12.28200
O         24.27400       64.09300       13.09300
C         25.96200       61.83100       11.46100
C         25.78900       60.73700       10.45100
C         26.30400       59.41400       10.96600
O         27.51700       59.20100       11.09400
N         25.34900       58.50100       11.26600
N         26.27900       64.86500       12.48100
C         26.33500       65.79600       13.60300
C         26.17400       65.07300       14.92100
O         25.31500       65.43200       15.74600
C         25.22300       66.83200       13.36700
C         25.58200       67.98300       12.45700
O         26.75900       68.17800       12.13300
O         24.62400       68.70100       12.06900
N         26.93900       64.01800       15.14900
C         26.81700       63.24500       16.39300
C         27.62800       63.96700       17.45100
O         28.38100       64.89800       17.11000
C         27.29600       61.81700       16.16000
C         26.82500       60.95600       15.03600
C         27.65700       59.66900       14.91200
C         25.36900       60.60100       15.20400
N         27.46300       63.49300       18.67400
C         28.31100       64.08000       19.76600
C         29.78700       63.92900       19.41400
O         30.20700       62.87400       18.80900
C         27.94800       63.27800       21.05100
C         28.89100       63.53300       22.21100
C         26.49600       63.53700       21.43800
N         30.61000       64.86000       19.79500
C         32.06800       64.78500       19.58000
C         32.53300       63.53100       20.30200
O         32.22600       63.26100       21.50700
C         32.79600       66.02200       20.09300
C         34.28100       65.96500       19.99700
C         34.92100       65.98900       18.76100
C         35.05900       65.83300       21.14800
C         36.29900       65.92300       18.65500
C         36.45500       65.76500       21.08000
C         37.04800       65.80100       19.83100
N         33.25200       62.65300       19.64500
C         33.80800       61.41400       20.09100
C         32.88200       60.27100       19.79500
O         33.28600       59.09200       20.00000
N         31.65800       60.51300       19.30400
C         30.70300       59.46000       18.95800
C         30.81900       58.98100       17.49300
O         30.02700       58.11900       17.10300
C         29.26800       59.81000       19.32700
C         28.89900       59.68300       20.77000
N         27.62900       59.40500       21.23400
C         29.67600       59.83500       21.89900
C         27.66600       59.40200       22.54500
N         28.88400       59.67000       22.96500
N         31.77100       59.49900       16.74000
C         32.16900       59.18300       15.40800
C         33.48500       58.38500       15.39000
O         33.66100       57.26700       15.99900
N         34.45200       58.94700       14.72000
C         35.81000       58.35700       14.64300
C         36.54200       58.67100       15.95600
O         37.08700       59.81900       16.06000
C         36.50300       58.91500       13.43000
C         37.82800       58.32500       13.12600
O         38.49400       57.64100       13.94600
O         38.34000       58.64600       12.03900
N         36.55000       57.71300       16.88200
C         37.17000       57.91100       18.19700
C         38.63600       58.13800       18.15000
O         39.08700       59.13100       18.76100
C         36.77200       56.73700       19.10000
C         37.11700       56.69900       20.58300
C         36.78900       57.97400       21.35700
C         36.42800       55.49800       21.26700
N         39.44400       57.35800       17.48500
C         40.90100       57.54500       17.37200
C         41.19900       58.89100       16.75700
O         42.07500       59.66100       17.27000
C         41.55900       56.33100       16.63300
O         41.09300       55.13300       17.32700
C         43.05700       56.29800       16.64600
N         40.47100       59.31200       15.70200
C         40.69900       60.64700       15.13900
C         40.44700       61.72200       16.17300
O         41.24100       62.68800       16.33700
C         39.90600       60.79400       13.83700
O         40.17800       62.04400       13.25500
N         39.36100       61.65000       16.93000
C         38.89200       62.50300       18.04300
C         39.98000       62.69500       19.09300
O         40.32900       63.81000       19.54700
C         37.60100       61.84600       18.57100
N         40.62600       61.61600       19.52600
C         41.72200       61.42300       20.40300
C         42.87700       62.27200       19.89900
O         43.32500       63.19500       20.64100
C         42.22700       59.98100       20.57000
C         43.42900       59.83300       21.45900
C         43.32200       60.31800       22.79700
C         44.63300       59.28500       21.02800
C         44.39200       60.25900       23.68100
C         45.74500       59.22800       21.90800
C         45.61900       59.71300       23.22900
N         43.33200       62.08000       18.66400
C         44.41800       62.88200       18.10000
C         44.01000       64.29500       17.83500
O         44.99100       65.09500       17.76200
C         45.11600       62.28000       16.87600
C         45.98700       61.10700       17.24400
C         47.29800       61.32600       17.71200
C         45.50800       59.80600       17.12500
C         48.10700       60.27100       18.05800
C         46.31100       58.71600       17.44900
C         47.59600       58.95400       17.89900
N         42.79400       64.73000       17.71300
C         42.35200       66.13800       17.57200
C         42.54200       66.83200       18.91400
O         43.02600       67.96700       18.99400
C         40.86000       66.25500       17.10400
O         40.87400       65.70700       15.71900
C         40.15100       67.59200       17.06200
N         42.16200       66.14000       19.99600
C         42.31400       66.65000       21.38000
C         43.79400       66.77300       21.73900
O         44.20500       67.79100       22.34600
C         41.45300       65.81500       22.34600
C         41.71400       66.14900       23.80100
C         39.96600       65.88300       22.02900
N         44.65200       65.86300       21.35700
C         46.11400       65.89700       21.57300
C         46.65800       67.14500       20.88600
O         47.39800       68.02500       21.45700
C         46.72200       64.52800       21.24600
C         48.22500       64.53400       21.11800
O         48.93900       64.34200       22.12000
O         48.70300       64.75900       19.99300
N         46.26400       67.36500       19.61600
C         46.63300       68.56700       18.89400
C         46.00500       69.74500       19.64000
O         46.81100       70.65700       19.86200
C         46.38500       68.51700       17.36900
C         46.98500       69.66600       16.52600
C         46.98100       69.38200       15.02800
C         46.04200       70.85700       16.60800
N         44.74300       69.81400       20.05500
C         44.29000       71.05800       20.72800
C         44.93900       71.38800       22.07600
O         45.19000       72.56300       22.33000
C         42.78900       71.18400       20.72700
C         42.15100       71.08100       19.35800
C         40.64500       70.77300       19.54700
C         42.36700       72.34300       18.50800
N         45.21100       70.38700       22.87700
C         45.78200       70.43200       24.19100
C         47.29200       70.44200       24.24500
O         47.96600       71.36200       24.82300
C         45.12900       69.32300       25.06500
C         43.58600       69.47500       25.25100
C         43.10000       70.84900       25.66100
O         43.74300       71.49400       26.49900
O         42.11000       71.37400       25.15100
N         47.92900       69.48100       23.58700
C         49.35700       69.30900       23.57200
C         50.03200       70.15100       22.52300
O         51.27500       70.29500       22.71700
C         49.75600       67.82700       23.50600
C         49.24700       67.03300       24.66400
O         49.25900       67.46900       25.82100
N         48.75500       65.80500       24.49300
N         49.34800       70.67100       21.51800
C         50.06100       71.41500       20.47400
C         50.88900       70.39400       19.66000
O         50.68600       69.15800       19.67200
N         51.85300       70.85300       18.91700
C         52.76000       70.06700       18.07300
C         53.93900       69.62200       18.91900
O         54.51400       70.43400       19.68400
C         53.26200       70.97400       16.90300
C         52.17000       71.42100       15.97400
C         51.45900       70.51200       15.18000
C         51.85400       72.77400       15.88700
C         50.48300       70.94000       14.31400
C         50.85200       73.22600       15.02700
C         50.13900       72.30700       14.24400
N         54.41100       68.37900       18.69000
C         55.56300       67.83100       19.39300
C         56.82000       68.65900       19.37000
O         57.59800       68.64300       20.35100
C         55.74400       66.44800       18.77600
C         54.37200       66.05900       18.25200
C         53.79500       67.39400       17.80100
N         57.21300       69.43400       18.40500
C         58.38800       70.25500       18.26500
C         57.98900       71.70600       18.49500
O         58.83500       72.55000       18.17500
C         59.02900       70.07300       16.86500
C         59.51500       68.68300       16.57900
O         60.47600       68.27000       17.27000
N         58.92100       67.89000       15.66300
N         56.79900       72.01900       18.97500
C         56.47000       73.43700       19.21100
C         55.79300       74.05400       18.01300
O         55.93100       73.48600       16.91100
N         55.08200       75.12200       18.20300
C         54.32700       75.72000       17.06400
C         53.11300       76.41300       17.71800
O         52.91300       76.37400       18.96900
N         52.31100       76.99500       16.84100
C         51.14600       77.75200       17.30100
C         50.24200       76.83900       18.06300
O         50.33900       75.59400       17.85600
C         50.57100       78.40400       16.05200
C         51.26700       77.85100       14.86700
C         52.45500       77.04500       15.38600
N         49.39400       77.38400       18.91800
C         48.45200       76.54400       19.68900
C         47.04900       77.08100       19.52700
O         46.85300       78.28000       19.34500
C         48.90600       76.40200       21.10500
C         49.64700       75.09000       21.33100
C         49.20700       74.57800       22.69400
C         50.47000       74.28500       23.49600
N         50.10200       73.41700       24.68600
N         46.06000       76.19200       19.52000
C         44.66600       76.65500       19.36200
C         44.22500       77.22200       20.72800
O         44.20100       76.43400       21.68600
C         43.62800       75.68200       18.90800
C         42.25600       76.31800       18.79800
C         41.92800       77.40800       18.02700
C         41.26100       75.71700       19.56200
C         40.60900       77.89000       17.99300
C         39.95900       76.15200       19.51900
C         39.64400       77.25500       18.73500
O         38.32500       77.63600       18.83100
N         43.83200       78.48500       20.68900
C         43.45200       78.99500       22.01900
C         42.04400       79.40900       22.28600
O         41.79100       79.89100       23.42700
C         44.56800       80.08100       22.37500
O         44.54700       79.90400       23.81600
C         44.28900       81.44600       21.86800
N         41.15100       79.20400       21.32900
C         39.76400       79.52400       21.38100
C         38.80800       78.54300       22.06300
O         39.13000       77.55100       22.72200
N         37.52100       78.88300       21.82100
C         36.40300       78.13400       22.37900
C         36.41800       76.72500       21.78200
O         36.82900       76.68000       20.61400
C         35.15000       78.91300       21.97000
C         35.55800       80.17400       21.32400
C         37.04500       80.04300       21.04900
N         36.01100       75.76100       22.54300
C         35.90400       74.37800       22.07400
C         34.37100       74.35400       21.83800
O         33.65000       74.17300       22.83600
C         36.24200       73.31500       23.07500
C         37.58100       72.94600       23.58800
C         38.50700       74.15400       23.62700
N         39.84500       73.73600       23.86000
C         40.97400       74.38600       23.59700
N         40.98000       75.57500       23.06800
N         42.10800       73.73700       23.90200
N         33.95400       74.55500       20.60400
C         32.53000       74.66800       20.32000
C         31.97400       73.39500       19.82300
O         32.63700       72.84000       18.93000
C         32.32300       75.82200       19.30000
C         30.97900       76.17500       18.79300
N         30.58300       75.96100       17.48400
C         29.89400       76.74500       19.36700
C         29.32200       76.32000       17.31200
N         28.89100       76.82500       18.42300
N         30.83800       72.99000       20.30600
C         30.17000       71.76900       19.80200
C         29.03200       72.20400       18.89400
O         28.14700       72.99700       19.25100
C         29.69800       70.85400       20.93700
C         30.84200       70.39500       21.81400
C         31.75400       69.42500       21.40000
C         31.04400       71.01700       23.07700
C         32.83200       69.04700       22.20600
C         32.10400       70.62900       23.87300
C         32.98700       69.66300       23.45000
N         29.01100       71.70400       17.68300
C         27.97800       71.88700       16.62300
C         27.44500       70.47800       16.27500
O         27.92900       69.84200       15.35200
C         28.49800       72.61600       15.41600
C         27.54400       72.82300       14.25100
O         26.34500       72.51400       14.39500
O         27.95900       73.29700       13.18900
N         26.51200       70.03200       17.06700
C         25.99900       68.67200       16.88900
C         24.49200       68.72400       16.95800
O         23.97100       69.84100       17.16200
C         26.67800       67.79600       18.02500
C         25.89900       67.92000       19.33700
C         25.92700       69.10200       20.07600
C         25.08800       66.88400       19.77400
C         25.20100       69.28100       21.23100
C         24.30100       67.00000       20.90500
C         24.39300       68.22100       21.62900
O         23.64300       68.34300       22.76300
N         23.80900       67.62900       16.87400
C         22.36900       67.57000       16.98400
C         22.06700       66.30300       17.81000
O         22.63100       65.26300       17.50400
C         21.76800       67.35000       15.61600
C         21.49900       68.51300       14.70800
C         21.18400       67.97000       13.32000
C         21.18500       69.00200       12.24900
N         22.09200       70.18600       12.50200
N         21.27100       66.46200       18.86100
C         20.86000       65.33800       19.73100
C         20.00700       64.42600       18.86900
O         19.08300       64.90400       18.16000
C         20.11500       66.04400       20.87100
C         20.43700       67.52000       20.81600
C         20.62500       67.71900       19.29800
N         20.24400       63.13400       18.83800
C         19.50400       62.21500       17.96100
C         18.03700       62.48600       18.06000
O         17.56100       62.67800       19.17700
C         19.95600       60.79800       18.24900
O         21.29600       60.59300       17.83000
N         17.22300       62.39100       17.02200
C         15.78700       62.60800       17.04500
C         14.99600       61.55100       17.77000
O         13.76700       61.64500       18.10000
C         15.22200       62.87600       15.63600
C         14.85100       61.61800       14.82600
C         14.53400       61.94500       13.44400
N         13.26200       62.53100       13.13100
C         12.17100       61.77300       12.91200
N         12.18200       60.46100       12.97400
N         11.01800       62.38200       12.60500
N         15.54700       60.41100       18.09700
C         14.99600       59.27400       18.82100
C         14.76300       59.59600       20.29400
O         13.88400       58.97800       20.90100
C         15.91000       57.95700       18.70200
O         17.24200       58.24100       19.20700
C         15.87100       57.35400       17.30700
N         15.53000       60.44200       20.90200
C         15.58100       60.87100       22.23400
C         14.73700       62.11000       22.53400
O         14.65200       63.08700       21.78600
C         17.07000       61.12600       22.64400
C         17.88000       59.85700       22.64000
O         17.61400       58.84800       21.96700
O         18.90600       59.86400       23.36500
N         14.19600       62.05500       23.73600
C         13.36800       63.15200       24.27900
C         14.34800       64.12300       24.92000
O         15.55500       63.85800       24.74100
N         13.85500       65.11400       25.66000
C         14.66100       66.14400       26.28900
C         15.64300       65.72400       27.33700
O         16.68900       66.42000       27.40200
C         13.86100       67.38200       26.75000
C         13.73900       68.45500       25.68400
C         14.72300       69.41100       25.49900
C         12.58500       68.41000       24.86300
C         14.55000       70.35200       24.48100
C         12.39900       69.37000       23.87500
C         13.40200       70.34800       23.69800
O         13.32300       71.30700       22.73100
N         15.49400       64.61900       28.06100
C         16.56500       64.16500       28.98300
C         17.80200       63.81100       28.14600
O         18.95000       64.11800       28.49600
C         16.04000       63.01600       29.79800
C         15.06400       63.35100       30.88900
O         14.57100       64.47900       31.00900
O         14.74800       62.46800       31.71000
N         17.59100       63.18200       26.97600
C         18.55300       62.83500       25.96500
C         19.27800       64.09000       25.47300
O         20.53000       64.15700       25.29100
N         18.54400       65.17200       25.23900
C         19.14400       66.45500       24.82800
C         20.15300       66.85500       25.88300
O         21.33400       67.10000       25.49700
C         18.08000       67.54300       24.55800
C         18.65400       68.92100       24.35100
C         17.20300       67.14900       23.39900
N         19.83100       66.95100       27.16400
C         20.81700       67.42900       28.19600
C         21.92100       66.44300       28.41300
O         23.11500       66.74600       28.64100
C         20.03100       67.98900       29.40800
C         18.92400       68.91500       29.01100
C         17.59400       68.79000       29.15800
C         19.12300       70.17900       28.32600
N         16.93400       69.85600       28.60400
C         17.84800       70.74600       28.09000
C         20.25300       70.86200       27.87100
C         17.70700       71.96000       27.42800
C         20.07800       72.05300       27.22200
C         18.83700       72.59500       26.99300
N         21.65900       65.17800       28.28700
C         22.59200       64.05300       28.32000
C         23.63500       64.23200       27.18400
O         24.85500       64.13100       27.47100
C         21.91100       62.66400       28.25200
C         21.32100       62.21000       29.55800
O         21.63700       62.90700       30.57000
O         20.55400       61.23800       29.65700
N         23.17400       64.51400       25.97700
C         24.04700       64.69200       24.81300
C         24.90800       65.92800       24.92000
O         26.11100       65.95200       24.50800
C         23.22300       64.59300       23.56600
O         22.38900       65.71600       23.41800
N         24.42600       67.01800       25.54300
C         25.16100       68.27700       25.80100
C         26.34100       67.92500       26.69900
O         27.51900       68.23600       26.48200
C         24.23900       69.32800       26.39300
N         26.02900       67.19100       27.74800
C         26.93000       66.64200       28.75700
C         27.94500       65.67600       28.18400
O         29.15400       65.74400       28.44600
C         26.13100       65.82400       29.77500
C         26.49100       66.10200       31.21800
C         25.15500       66.46800       31.87900
C         24.40800       65.22100       32.32500
N         23.21000       65.61800       33.13000
N         27.45300       64.75000       27.36400
C         28.25900       63.72600       26.62900
C         29.36600       64.48100       25.90000
O         30.52400       64.13600       26.19100
C         27.43300       62.78300       25.80100
N         29.12400       65.52100       25.12100
C         30.14200       66.29100       24.44900
C         31.32100       66.68100       25.32900
O         32.49600       66.40500       25.01800
C         29.52700       67.55400       23.78200
C         28.80600       67.29200       22.49500
O         29.41300       66.98700       21.48700
N         27.48100       67.40100       22.48700
N         31.05900       67.37700       26.43200
C         32.06000       67.87600       27.39800
C         32.68600       66.66700       28.08500
O         33.93700       66.72900       28.25000
C         31.48700       68.94100       28.33000
C         30.78100       70.04300       27.61000
S         30.16100       71.28900       28.78300
C         28.61500       70.56200       29.34400
N         31.96600       65.60400       28.44600
C         32.54500       64.42300       29.06700
C         33.57300       63.78900       28.09000
O         34.71800       63.48200       28.53600
C         31.60600       63.31100       29.46700
O         30.52500       63.72200       30.22900
N         33.16200       63.62300       26.84300
C         34.00200       63.07700       25.78400
C         35.26700       63.94600       25.66100
O         36.37600       63.37000       25.70100
C         33.34600       62.93200       24.41900
C         32.45500       61.77200       24.34300
S         33.17100       60.15500       24.70800
C         34.72800       60.14800       23.78700
N         35.14500       65.23700       25.53400
C         36.34400       66.07900       25.45600
C         37.28100       65.88600       26.65000
O         38.52200       65.73500       26.43800
C         35.99600       67.54000       25.19100
C         37.19200       68.35100       24.76500
C         38.18300       68.80000       25.67600
C         37.32200       68.71300       23.41000
C         39.28300       69.53000       25.25400
C         38.40000       69.47700       22.99500
C         39.38200       69.87100       23.90500
O         40.43800       70.61200       23.46600
N         36.76900       65.93700       27.86800
C         37.53200       65.78900       29.10900
C         38.17400       64.44400       29.24700
O         39.38100       64.40600       29.61400
C         36.63400       66.30600       30.25200
C         36.37300       67.81000       30.21500
C         35.58900       68.15000       31.46500
C         37.63500       68.66100       30.26000
N         37.50600       63.33300       28.92900
C         38.14300       62.01200       28.97200
C         39.26700       61.89100       27.96300
O         40.37800       61.38100       28.28800
C         37.02600       61.00500       28.77700
C         36.02500       60.84800       29.91500
C         35.02100       59.74600       29.51300
C         36.75900       60.51700       31.22100
N         39.05700       62.42100       26.71900
C         40.10900       62.35200       25.68300
C         41.29600       63.16200       26.12600
O         42.46100       62.75600       25.98700
C         39.62400       62.67000       24.28100
C         38.51800       61.78800       23.72700
C         38.00300       62.38000       22.42600
C         39.02400       60.37900       23.51200
N         40.98100       64.34300       26.67100
C         42.02500       65.22700       27.17800
C         42.86900       64.52100       28.24500
O         44.11900       64.58000       28.11300
C         41.46000       66.53900       27.64600
C         42.53400       67.38800       28.33800
C         41.94900       68.69200       28.76700
C         42.93200       69.47100       29.59500
N         42.59000       70.92000       29.29800
N         42.26000       63.86600       29.21900
C         42.99500       63.15700       30.28400
C         43.98500       62.16700       29.71900
O         45.19800       62.08900       30.05800
C         41.96300       62.62000       31.26100
C         42.04800       61.44700       32.15700
C         40.83100       60.95000       32.86400
O         40.60000       61.60200       33.92300
O         40.05300       60.02700       32.61600
N         43.55100       61.31100       28.79500
C         44.27600       60.29400       28.05000
C         45.35700       60.87200       27.18700
O         46.49600       60.37600       27.21000
C         43.25100       59.52400       27.23300
C         42.60000       58.56800       28.22800
C         41.24600       58.19200       27.73900
N         40.68500       57.27100       28.74700
C         40.11200       57.71000       29.87900
N         40.00600       59.01400       30.16100
N         39.64400       56.81200       30.71300
N         45.10500       61.96400       26.45000
C         46.07100       62.63300       25.60400
C         47.20200       63.23400       26.41900
O         48.36400       63.33000       25.92600
C         45.45400       63.72400       24.71700
N         46.93000       63.71300       27.64900
C         47.95800       64.29600       28.53700
C         48.70500       63.10000       29.10200
O         49.94900       63.14600       29.13300
C         47.38100       65.20000       29.56900
C         46.64000       66.45300       29.18700
C         46.20600       67.16200       30.46300
C         47.46000       67.41100       28.35800
N         48.01300       62.03800       29.45800
C         48.73100       60.85600       29.97300
C         49.64600       60.31400       28.88700
O         50.80800       59.92700       29.16600
C         47.80800       59.81400       30.52600
N         49.18700       60.23500       27.65500
C         49.86700       59.75800       26.48100
C         51.19400       60.46100       26.28700
O         52.25100       59.79700       26.24400
C         48.95800       59.91300       25.25900
C         49.57400       59.66600       23.93700
C         50.28000       58.48300       23.67200
C         49.41500       60.61400       22.93200
C         50.83900       58.25600       22.40900
C         49.93900       60.37300       21.65500
C         50.67300       59.22400       21.39500
N         51.24100       61.76600       26.16900
C         52.51600       62.44000       25.96800
C         53.41200       62.52300       27.17900
O         54.60700       62.79400       26.96200
C         52.23400       63.81700       25.39100
C         51.54300       63.89600       24.05600
C         52.03700       62.98000       23.00800
N         51.39700       63.28800       21.75300
C         51.81000       62.90400       20.54500
N         52.85600       62.10000       20.41300
N         51.08500       63.32000       19.51700
N         52.92900       62.28400       28.39500
C         53.70800       62.33500       29.63100
C         54.44200       61.01700       29.87900
O         55.47700       61.00700       30.59100
C         52.85200       62.74500       30.81100
N         53.95800       59.94600       29.29700
C         54.58200       58.64700       29.41700
C         55.94900       58.57000       28.76400
O         56.08800       58.57900       27.55600
C         53.59800       57.68400       28.76200
C         54.05400       56.26000       28.83900
O         55.20200       55.92300       29.21200
O         53.20600       55.37500       28.51200
N         56.98100       58.26400       29.54300
C         58.36300       58.03100       29.10200
C         58.56100       57.03500       27.96600
O         59.41100       57.13900       27.07300
C         59.00500       57.41100       30.37400
C         58.35300       58.19600       31.46200
C         56.88000       58.14800       31.02900
N         57.78600       55.95100       27.89900
C         57.75400       54.93700       26.88800
C         57.34200       55.56500       25.53900
O         57.94600       55.26200       24.50300
C         56.69100       53.89000       27.11100
C         57.07300       52.60100       27.86600
C         57.31800       51.45700       26.91900
O         58.28600       51.77000       26.15600
O         56.63900       50.42100       26.93100
N         56.32700       56.42900       25.61000
C         55.78200       57.15800       24.47600
C         56.84300       58.13100       23.99400
O         57.05000       58.14500       22.77700
C         54.38800       57.76000       24.73500
C         53.99600       58.77500       23.67400
C         53.28700       56.77200       24.94000
N         57.50700       58.87100       24.83300
C         58.55600       59.82500       24.46100
C         59.73200       59.15100       23.75300
O         60.25800       59.65900       22.72700
C         58.95400       60.69300       25.64300
C         57.93600       61.71700       26.01800
C         57.68000       62.86300       25.06400
O         58.56500       63.42000       24.38100
N         56.39300       63.29400       24.99600
N         60.15100       57.99700       24.24500
C         61.20400       57.15700       23.70700
C         60.72200       56.66500       22.34100
O         61.44500       56.82600       21.37300
C         61.46000       55.96900       24.57700
C         62.72400       55.16100       24.68300
C         62.56700       53.92500       25.56000
O         61.93200       53.88500       26.63300
O         63.15700       52.90000       25.08200
N         59.49500       56.12300       22.24800
C         58.89700       55.65700       21.00700
C         58.85500       56.77500       19.98800
O         59.17000       56.51000       18.80900
C         57.56900       54.92800       21.17700
N         58.53400       58.00300       20.27300
C         58.50000       59.16400       19.41700
C         59.87900       59.52500       18.85500
O         59.96500       60.00900       17.71400
C         57.94000       60.34500       20.19700
C         56.49500       60.20200       20.54700
S         55.91700       61.64900       21.48900
C         56.32200       63.04200       20.44600
N         60.94000       59.37700       19.62100
C         62.32100       59.60800       19.31600
C         62.81800       58.62600       18.26500
O         63.30300       58.97800       17.17700
C         63.21000       59.43100       20.55000
C         64.34000       60.48000       20.48700
C         65.26300       60.29000       21.68200
C         66.65700       60.83100       21.35700
N         67.24100       60.01600       20.23000
N         62.64700       57.35200       18.52300
C         62.92800       56.21100       17.70400
C         62.29000       56.34100       16.32000
O         62.96500       56.04900       15.32600
C         62.38000       54.83400       18.25200
O         63.03900       54.67600       19.54100
C         62.64300       53.64700       17.35400
N         61.03100       56.74700       16.21400
C         60.28200       56.94600       15.01200
C         60.66000       58.22500       14.29600
O         60.12500       58.37700       13.16300
C         58.76400       56.92200       15.21300
O         58.45600       55.68600       15.86800
N         61.45500       59.10100       14.84600
C         61.88300       60.29200       14.22500
C         60.91500       61.40800       14.27900
O         61.05800       62.42100       13.48700
N         60.01200       61.40900       15.28800
C         59.04300       62.53600       15.41500
C         59.81800       63.80700       15.69000
O         59.57000       64.86000       15.07400
C         57.93600       62.25800       16.41000
C         56.99900       63.44100       16.59400
C         57.11000       60.99200       16.11600
N         60.78100       63.73000       16.59900
C         61.62800       64.92200       16.92300
C         62.56000       65.24300       15.80300
O         62.77900       66.44000       15.44100
C         62.34400       64.70900       18.27500
C         61.33200       64.46200       19.37500
C         60.43000       65.46700       19.72300
C         61.33800       63.27000       20.04300
C         59.51300       65.26300       20.76100
C         60.42000       63.05000       21.09200
C         59.50600       64.05500       21.43800
N         63.10400       64.19700       15.15200
C         64.01400       64.44800       14.01100
C         63.39000       65.21400       12.88800
O         64.11300       66.02600       12.28800
C         64.59500       63.16000       13.50300
C         65.71500       63.40700       12.47800
C         66.35400       62.09500       12.12000
O         65.92900       60.99900       12.49100
O         67.34000       62.44000       11.42400
N         62.06700       65.04800       12.58500
C         61.37600       65.81700       11.58700
C         61.51700       67.31800       11.76800
O         61.59400       68.09800       10.77200
C         59.91200       65.40100       11.38700
C         59.20100       66.10100       10.23300
C         59.81300       65.78600        8.88500
C         57.75200       65.71400       10.26100
N         61.57700       67.85000       12.96000
C         61.78800       69.19000       13.40600
C         63.12500       69.78900       13.04800
O         63.11800       71.03900       12.99600
N         64.19900       69.09600       12.77200
C         65.49500       69.62400       12.37500
C         65.47800       70.04200       10.91800
O         65.00800       69.19800       10.12600
C         66.55200       68.54100       12.45200
C         66.81000       67.88500       13.75700
C         67.70000       66.69200       13.77600
O         68.56600       66.64700       12.85300
O         67.63300       65.82800       14.65100
N         65.95600       71.19800       10.55100
C         65.98700       71.66000        9.16400
C         66.80500       70.68700        8.31000
O         67.81100       70.07700        8.74400
C         66.50100       73.12000        9.02200
O         67.94500       73.12000        9.39200
C         65.77800       74.16800        9.83700
N         66.38000       70.55700        7.04700
C         67.03500       69.61400        6.12700
C         68.42300       70.08500        5.75800
O         69.37700       69.30100        5.68400
C         66.08800       69.29900        4.89600
O         64.88300       68.66300        5.42700
C         66.75900       68.46300        3.80500
N         68.57700       71.34900        5.46500
C         69.85900       71.93000        5.16400
C         70.55800       72.36100        6.47800
O         69.92000       72.60200        7.52100
C         69.51600       73.16000        4.32200
C         68.85300       73.14500        2.98700
C         68.46600       74.56000        2.56300
C         69.74800       72.52300        1.91800
N         71.84500       72.51000        6.46800
C         72.71600       73.02500        7.52500
C         72.67700       74.56300        7.42500
O         72.34800       75.13600        6.36600
C         74.11400       72.46600        7.36400
C         74.14500       70.97100        7.48800
O         73.44300       70.46100        8.36800
N         74.90200       70.27600        6.66600
N         72.98300       75.22300        8.52000
C         72.97900       76.71100        8.58000
C         73.80200       77.24500        7.42400
O         74.93000       76.76200        7.20800
C         73.56200       77.15200        9.90900
N         73.23500       78.16100        6.68600
C         73.90900       78.68900        5.50500
C         74.52000       77.53700        4.67100
O         75.78700       77.46800        4.63700
N         73.75400       76.64600        4.08300
C         74.08600       75.56000        3.19800
C         73.13200       75.97100        2.05900
O         71.97300       76.22300        2.45900
C         73.76400       74.14700        3.56100
C         73.91600       73.03400        2.53600
C         73.88000       71.60300        2.96300
O         73.24900       71.38300        4.01100
O         74.38500       70.62300        2.41500
N         73.57000       76.10100        0.85000
C         72.63500       76.47100       -0.25100
C         72.33200       75.19300       -1.06700
O         72.91600       74.14500       -0.78000
C         73.22500       77.47300       -1.22900
O         74.38300       76.81800       -1.81400
N         71.50800       75.40600       -2.07900
C         71.11900       74.34300       -3.02900
C         72.39400       73.77600       -3.65800
O         72.67200       72.55400       -3.50100
C         70.18500       74.90400       -4.08000
N         73.20100       74.65300       -4.27900
C         74.47500       74.25700       -4.89800
C         75.36000       73.53300       -3.90800
O         75.86400       72.44600       -4.23400
C         75.15900       75.43500       -5.53300
N         75.54800       74.02600       -2.70400
C         76.29300       73.42600       -1.62000
C         75.91700       71.98200       -1.34900
O         76.81900       71.12600       -1.14600
C         76.06700       74.28200       -0.34900
C         76.82200       75.56500       -0.20300
O         77.92000       75.57800       -0.81100
O         76.42000       76.53600        0.47000
N         74.62600       71.62900       -1.28800
C         74.09400       70.31100       -1.05400
C         74.20600       69.39100       -2.24100
O         74.51400       68.22500       -1.90800
C         72.64800       70.41300       -0.57400
C         71.80900       69.11900       -0.60100
C         72.01000       68.20000        0.56900
C         70.38100       69.61300       -0.78900
N         74.01100       69.78600       -3.47500
C         74.11300       68.88300       -4.65500
C         75.52600       68.27100       -4.85400
O         75.69900       67.11700       -5.28500
C         73.68500       69.53700       -5.94000
C         72.37300       70.18000       -5.98900
S         72.31200       71.20800       -7.47700
C         72.39900       69.98900       -8.78900
N         76.49700       69.06400       -4.57700
C         77.90400       69.07800       -4.42600
C         78.26500       68.07300       -3.30100
O         78.99000       67.12300       -3.60800
C         78.32200       70.44000       -3.89300
C         79.44000       71.19200       -4.53100
O         79.20600       72.32900       -5.05100
N         80.64100       70.59900       -4.47000
N         77.74900       68.27200       -2.09000
C         78.02700       67.33400       -0.98300
C         77.71900       65.90400       -1.37400
O         76.59000       65.40800       -1.36400
C         77.32200       67.73000        0.31800
C         77.51600       66.79200        1.48900
O         78.45600       65.96000        1.51600
O         76.74400       66.78000        2.46500
N         78.71700       65.10300       -1.56600
C         78.81600       63.72500       -1.96400
C         78.21300       62.73500       -1.00900
O         77.78500       61.64500       -1.41900
C         80.31100       63.43900       -2.22900
O         80.64700       62.06500       -1.99100
N         78.16000       63.09200        0.25300
C         77.60800       62.29300        1.33600
C         76.08200       62.29500        1.28500
O         75.49900       61.30100        1.70300
C         78.09300       62.80000        2.68400
N         75.49200       63.38100        0.79700
C         74.05600       63.52600        0.68500
C         73.49000       62.94600       -0.60100
O         72.27400       62.79200       -0.58400
C         73.57500       64.98700        0.68000
O         74.53600       65.76000        1.34700
N         74.31600       62.74200       -1.60400
C         73.84500       62.22800       -2.89400
C         74.65700       61.11100       -3.50300
O         74.40500       59.90500       -3.26100
C         73.58900       63.39800       -3.87200
C         72.75900       62.94700       -5.06000
C         71.50700       62.34600       -4.89200
C         73.28500       63.17000       -6.33600
C         70.80400       61.99300       -6.00700
C         72.57200       62.78600       -7.46300
C         71.31400       62.18400       -7.30000
N         75.68200       61.48000       -4.26400
C         76.56500       60.54300       -4.94800
C         77.05300       59.37400       -4.10900
O         76.99300       58.19600       -4.55900
C         77.74900       61.29700       -5.51400
N         77.54200       59.59400       -2.90600
C         78.02600       58.58800       -2.01900
C         76.99500       58.24000       -0.99000
O         77.37600       57.51600       -0.05100
N         75.75600       58.67100       -1.13900
C         74.71600       58.31600       -0.16500
C         74.33700       56.85500       -0.42100
O         74.01300       56.51200       -1.55700
C         73.50000       59.22400       -0.20900
C         72.42600       58.91300        0.78500
C         72.50800       59.35600        2.09400
C         71.32000       58.16900        0.39100
C         71.49000       59.05700        3.00400
C         70.29400       57.85400        1.25600
C         70.36700       58.28800        2.57200
N         74.35800       56.10600        0.66600
C         73.96300       54.72500        0.65700
C         72.44400       54.52800        0.94900
O         71.96700       54.19700        2.06500
C         74.80300       53.83200        1.58700
C         74.52900       52.36700        1.39000
O         73.81500       52.00900        0.43300
O         74.94500       51.41700        2.06700
N         71.68300       54.59600       -0.14900
C         70.23100       54.43500       -0.21800
C         69.73300       53.10700        0.31400
O         68.73900       53.14900        1.05000
C         69.68000       54.72700       -1.59500
N         70.37100       51.98700        0.04100
C         69.90000       50.72700        0.57400
C         70.21000       50.64500        2.06500
O         69.34700       50.00500        2.68900
C         70.42200       49.46000       -0.05500
C         70.81400       49.55400       -1.48800
C         69.78300       49.78100       -2.54400
O         68.99500       48.77300       -2.59800
O         69.75700       50.76900       -3.28800
N         71.26800       51.23000        2.61500
C         71.47800       51.09500        4.04900
C         70.44100       51.88100        4.83900
O         69.86400       51.40400        5.83400
C         72.89100       51.53500        4.40300
N         70.16200       53.10600        4.40000
C         69.23700       54.09600        4.92400
C         67.84500       53.56400        5.03400
O         67.07200       53.57900        6.04900
C         69.33000       55.41200        4.13900
N         67.37900       52.80800        4.03600
C         66.12600       52.13300        3.86400
C         65.86600       51.05100        4.86900
O         64.72100       50.53000        5.02000
C         66.06200       51.48000        2.48400
N         66.85300       50.61000        5.59800
C         66.80700       49.60700        6.60700
C         66.22800       50.15400        7.89800
O         65.79600       49.32900        8.73400
C         68.16200       48.98800        6.79900
C         68.65400       47.97700        5.75800
C         70.13600       47.67500        5.80300
O         70.82600       48.61300        6.31600
O         70.61300       46.61900        5.35400
N         66.15800       51.43500        8.14000
C         65.58500       51.97000        9.35000
C         64.19400       51.41900        9.67000
O         63.30400       51.57300        8.82300
C         65.42100       53.49300        9.20500
C         65.03500       54.07500       10.58700
C         65.28200       55.56800       10.54800
N         64.87600       56.09700       11.82300
C         64.99200       57.36600       12.15200
N         65.51000       58.28700       11.38500
N         64.51600       57.60400       13.38300
N         64.02200       50.83900       10.82900
C         62.71300       50.38300       11.26700
C         62.10600       51.68800       11.81300
O         62.55500       52.08200       12.93200
C         62.77800       49.31900       12.34300
C         61.51500       49.01500       13.09800
O         60.44000       49.44200       12.67100
N         61.52100       48.26500       14.20100
N         61.10900       52.30300       11.18300
C         60.49300       53.51000       11.73800
C         59.58900       53.12800       12.90100
O         59.20500       54.06900       13.63700
C         59.80300       54.42000       10.76100
C         60.66700       55.20700        9.81300
C         61.11700       56.47200       10.17400
C         61.00300       54.66400        8.56600
C         61.93700       57.21000        9.30800
C         61.80200       55.42500        7.70900
C         62.27300       56.68200        8.04900
N         59.15000       51.89500       13.16500
C         58.33200       51.50800       14.28300
C         57.12300       52.39200       14.51700
O         56.76600       52.70900       15.67600
C         59.21100       51.41300       15.56500
N         56.38000       52.69900       13.44900
C         55.14400       53.50500       13.54700
C         54.00400       52.62000       14.08500
O         53.17000       53.20700       14.80100
C         54.84900       54.22900       12.28900
C         55.75600       55.32500       11.79200
C         56.18200       56.37300       12.53700
C         56.09300       55.26900       10.43900
C         56.96400       57.36000       11.94900
C         56.86400       56.21200        9.81300
C         57.30000       57.28200       10.59900
N         53.99900       51.33300       13.81700
C         52.96900       50.47700       14.35800
C         53.02800       50.54200       15.88100
O         51.96000       50.80800       16.48000
C         53.01300       48.97900       13.80700
C         53.05600       49.08700       12.27200
C         51.86300       48.04200       14.34900
C         53.65500       48.01700       11.37400
N         54.18300       50.28100       16.48400
C         54.38600       50.31200       17.94800
C         54.02400       51.66700       18.50600
O         53.18700       51.60200       19.45100
C         55.71300       49.78500       18.42800
C         55.87600       49.76400       19.91800
C         57.05300       48.99200       20.40200
N         57.05400       49.08200       21.87000
C         57.62600       50.00000       22.62800
N         58.33100       50.98900       22.14300
N         57.48200       49.90700       23.95000
N         54.41100       52.79800       17.97200
C         53.92500       54.10800       18.41300
C         52.38900       54.12400       18.31500
O         51.78300       54.62300       19.29300
C         54.59800       55.16400       17.58400
C         54.43600       56.60400       17.93400
C         54.88100       56.94100       19.36100
C         55.27600       57.53100       17.00100
N         51.71700       53.59000       17.27400
C         50.28600       53.57700       17.15600
C         49.66000       52.74700       18.25200
O         48.71400       53.18100       18.93900
C         49.80700       53.20300       15.74200
C         48.34000       53.65100       15.63100
O         48.08600       54.87500       15.81800
N         47.47800       52.70000       15.44400
N         50.17100       51.54400       18.49600
C         49.66300       50.66900       19.61300
C         49.78000       51.40700       20.96400
O         48.85700       51.46600       21.78700
C         50.31000       49.30400       19.61400
C         49.80700       48.28900       20.60700
C         48.37900       47.89300       20.39900
O         47.83200       47.36300       21.36400
N         47.79700       48.09100       19.24000
N         50.90300       52.03600       21.25900
C         51.10400       52.81400       22.45800
C         49.99600       53.86600       22.55100
O         49.32700       53.90600       23.62400
C         52.52400       53.43700       22.52400
C         53.65400       52.45300       22.77800
C         54.97900       53.18100       22.75800
C         53.57800       51.82400       24.15000
N         49.74100       54.68300       21.54800
C         48.67700       55.67400       21.58300
C         47.33100       55.01600       21.86600
O         46.57900       55.48500       22.79200
C         48.69800       56.53200       20.30600
N         46.91600       53.93300       21.17100
C         45.62500       53.32100       21.42100
C         45.50400       52.79400       22.82400
O         44.45800       52.92600       23.50700
C         45.22700       52.22800       20.35200
C         45.34800       52.69500       18.89800
C         43.79500       51.66600       20.58700
C         44.81400       54.11300       18.59400
N         46.50300       52.15000       23.39600
C         46.54200       51.61300       24.76400
C         46.31300       52.70600       25.79100
O         45.62000       52.40400       26.77900
C         47.81600       50.85800       25.01600
C         47.71900       49.39300       24.46300
C         49.05600       48.71000       24.49600
O         50.01400       49.25100       25.02600
O         49.03800       47.57300       23.96500
N         46.77200       53.92200       25.61200
C         46.54100       55.06900       26.42000
C         45.10700       55.54700       26.19200
O         44.45000       55.89500       27.19000
C         47.42600       56.30900       26.19600
C         48.68700       56.22400       27.03500
N         48.84200       56.73800       28.28600
C         49.87400       55.63600       26.70300
C         50.07500       56.47000       28.67900
N         50.71400       55.81200       27.75700
N         44.55700       55.45000       24.99700
C         43.18300       55.79800       24.67400
C         42.17600       54.90800       25.36800
O         41.15800       55.45200       25.75600
C         42.95400       55.79800       23.16400
C         41.51300       55.88900       22.66100
C         40.84900       57.19500       23.09000
C         41.54900       55.79900       21.14000
N         42.41900       53.63300       25.51400
C         41.67400       52.59900       26.12000
C         41.86500       52.56500       27.62200
O         41.15700       51.77800       28.29500
C         42.05500       51.22500       25.53200
C         41.76200       50.81200       24.09700
C         41.85900       49.32100       23.85800
C         40.40600       51.31200       23.62200
N         42.71100       53.35300       28.21200
C         43.02800       53.46200       29.57000
C         43.68600       52.21600       30.09400
O         43.40200       51.84700       31.22800
N         44.54400       51.54900       29.36200
C         45.17400       50.31800       29.83200
C         46.60800       50.62700       30.24600
O         47.22700       49.70200       30.79200
C         45.11700       49.21600       28.79600
O         45.88700       49.71100       27.71700
N         47.04600       51.84300       29.99900
C         48.39700       52.20600       30.41400
C         48.20700       53.19000       31.56300
O         48.32800       54.42800       31.44500
C         49.28400       52.71200       29.29500
C         50.08500       51.65900       28.63500
C         50.86400       52.12800       27.43300
N         51.32900       50.87300       26.84500
C         52.47700       50.24000       26.94200
N         53.52400       50.76100       27.56200
N         52.61900       49.05300       26.31500
N         47.05200       41.27300       29.57300
C         46.45800       40.38300       28.53800
C         47.57900       39.82600       27.64900
O         48.24600       40.53400       26.85500
C         45.31000       41.14200       27.83700
C         44.12900       41.45200       28.76300
C         45.73400       42.43500       27.12900
N         47.79300       38.54700       27.82200
C         48.75300       37.70600       27.10200
C         47.87800       36.64000       26.43600
O         47.04100       36.04400       27.10000
C         49.88500       37.15600       27.94300
N         48.05000       36.49700       25.13200
C         47.21600       35.53500       24.40700
C         47.69500       34.14500       24.69800
O         48.84200       33.97600       25.13700
C         47.40800       35.97200       22.95300
C         48.87800       36.28400       22.94700
C         48.96900       37.14700       24.22900
N         46.89500       33.14100       24.48900
C         47.33200       31.75700       24.69600
C         46.61400       30.99200       23.61300
O         45.42300       31.33300       23.35900
C         46.96200       31.13100       26.09100
O         46.02700       29.95500       25.85000
C         46.25800       31.92900       27.19500
N         47.11100       29.84400       23.14700
C         46.46600       28.95200       22.18200
C         45.00300       28.85100       22.33700
O         44.31300       28.92400       21.28000
C         47.22300       27.62300       22.32200
C         48.65100       28.19700       22.34800
C         48.47400       29.33100       23.40500
N         44.36700       28.76100       23.48600
C         42.98300       28.70700       23.87000
C         42.12000       29.83700       23.37800
O         40.88900       29.75700       23.23400
C         43.02900       28.67900       25.40400
N         42.66600       30.98300       23.02200
C         42.11400       32.19100       22.46600
C         41.72900       31.99100       21.00600
O         40.89300       32.77400       20.51500
C         43.01200       33.38600       22.67500
C         43.08200       33.85200       24.11300
O         42.01800       33.94000       24.73200
O         44.18000       34.15800       24.61100
N         42.33200       31.04300       20.30900
C         41.99700       30.64700       18.93100
C         42.31300       31.70600       17.87700
O         41.67500       31.87300       16.80700
C         40.56200       30.10500       19.00300
C         39.96600       29.08200       18.15400
N         38.70900       28.47600       18.32200
C         40.41400       28.48100       17.00800
C         38.46700       27.57800       17.33600
N         39.50300       27.56400       16.50600
N         43.38800       32.43800       18.10500
C         43.98400       33.48000       17.30400
C         44.79300       32.87300       16.18800
O         45.72700       32.12600       16.50500
C         44.85200       34.43500       18.12700
C         44.09000       35.34000       19.04200
C         42.85600       35.88800       18.70600
C         44.67400       35.65500       20.29600
C         42.15900       36.71200       19.54800
C         43.98100       36.49700       21.18600
C         42.72600       37.02400       20.79200
N         44.40600       33.05400       14.93100
C         45.12900       32.44500       13.78800
C         45.56600       33.58700       12.91200
O         44.96100       34.65000       13.06600
C         44.35400       31.36000       13.03000
O         43.25500       31.99100       12.33400
C         43.84600       30.21000       13.95400
N         46.64100       33.50500       12.17400
C         47.24000       34.47800       11.30900
C         47.57600       33.77400        9.95900
O         47.87800       32.59000        9.93500
C         48.51600       35.23000       11.72500
C         48.49000       36.01100       12.99200
C         48.44700       35.28000       14.19000
C         48.50000       37.40100       13.03600
C         48.33900       35.84600       15.40900
C         48.43200       38.06800       14.26700
C         48.35700       37.25200       15.41400
N         47.47600       34.60600        8.90000
C         47.78400       34.00000        7.59600
C         49.28800       34.16000        7.43700
O         49.91000       35.18200        7.86000
N         49.88100       33.27100        6.66200
C         51.31800       33.34100        6.32300
C         51.63400       34.54900        5.48700
O         52.76100       35.16400        5.54900
C         51.67500       32.04500        5.67700
C         53.07200       31.70300        5.25600
C         54.08900       31.77100        6.40000
C         52.98700       30.24000        4.78200
N         50.70400       35.05300        4.68400
C         50.83600       36.23000        3.83300
C         50.75300       37.54300        4.57000
O         51.11700       38.59200        4.02600
C         49.77500       36.19700        2.71500
C         48.37400       36.42300        3.17300
C         47.70800       37.60200        3.23800
C         47.47100       35.39800        3.66900
N         46.44200       37.41800        3.72900
C         46.28200       36.07200        3.98600
C         47.56100       34.02900        3.83500
C         45.17400       35.38300        4.48300
C         46.48400       33.36500        4.32800
C         45.31200       34.03300        4.64400
N         50.20700       37.51300        5.76500
C         50.08400       38.75600        6.59100
C         51.46700       39.17900        7.00200
O         52.05700       40.12200        6.39400
C         49.00500       38.44200        7.68700
O         49.70800       37.58000        8.63900
C         47.71600       37.85400        7.11900
N         52.10400       38.46400        7.94200
C         53.47400       38.73900        8.43300
C         54.56000       38.53700        7.38600
O         55.63600       39.19200        7.46900
C         53.85700       37.94500        9.69600
C         53.18800       38.51400       10.95000
C         53.63100       36.43200        9.59200
N         54.31900       37.70700        6.36600
C         55.17400       37.46600        5.25300
C         55.01700       38.56700        4.20300
O         55.78200       38.45000        3.21000
N         54.11600       39.54200        4.28900
C         53.93000       40.64100        3.34700
C         55.18100       41.58200        3.49900
O         55.43900       42.26300        4.48900
C         52.74700       41.58000        3.49300
C         52.61200       42.66100        2.45000
C         52.37600       42.45800        1.10200
C         52.66400       44.10600        2.63300
N         52.25700       43.62900        0.45900
C         52.41500       44.66900        1.35100
C         52.79200       44.88900        3.74400
C         52.34900       46.04900        1.18300
C         52.73400       46.26700        3.57600
C         52.53200       46.85000        2.33000
N         55.86500       41.64700        2.44000
C         57.16400       42.30700        2.22600
C         57.18700       43.72200        1.85800
O         58.29900       44.40300        1.83700
C         57.78100       41.12600        1.34000
O         58.75400       40.47800        2.21800
C         58.20200       41.31900       -0.02100
N         56.06000       44.36700        1.61400
C         55.98600       45.76900        1.31400
C         55.80500       46.25200       -0.07400
O         55.83600       47.48300       -0.25400
N         55.58600       45.38900       -1.04200
C         55.43300       45.95500       -2.41500
C         54.01100       46.45900       -2.47700
O         53.09400       45.66100       -2.10500
C         55.72500       44.80600       -3.32000
N         53.83200       47.65400       -2.91500
C         52.46100       48.24700       -3.05800
C         52.47700       48.66200       -4.51700
O         53.43400       48.37300       -5.27000
C         52.26800       49.20200       -1.91800
C         52.96500       50.50100       -2.01700
O         53.32900       50.98900       -3.09700
O         53.13600       51.13500       -0.97200
N         51.48700       49.40900       -4.97100
C         51.48000       49.86300       -6.37600
C         52.47400       50.96600       -6.68800
O         52.57300       51.30200       -7.89300
C         50.04800       50.33300       -6.63100
C         49.35500       50.46100       -5.31500
C         50.28500       49.82900       -4.27100
N         53.10300       51.65800       -5.74300
C         54.02300       52.73900       -6.03000
C         55.43600       52.44200       -5.58500
O         56.28500       53.33600       -5.61200
C         53.43000       54.04200       -5.47200
C         52.29100       54.55500       -6.31600
C         52.56500       55.19600       -7.53500
C         50.97800       54.35100       -5.91300
C         51.49500       55.64800       -8.33100
C         49.93400       54.79100       -6.68200
C         50.18300       55.45600       -7.88700
N         55.75800       51.23900       -5.18800
C         57.06800       50.83300       -4.74100
C         57.26700       49.36700       -4.49100
O         56.32800       48.59300       -4.44800
N         58.51600       49.00400       -4.31400
C         58.97900       47.64700       -4.10100
C         59.04400       47.28800       -2.63500
O         58.94700       48.15300       -1.78300
C         60.36400       47.46000       -4.77300
C         60.17100       47.36000       -6.29300
C         61.33900       48.54300       -4.36900
N         59.21100       46.01200       -2.43800
C         59.30100       45.32800       -1.15000
C         60.31500       46.06800       -0.28900
O         61.37900       46.47700       -0.79900
C         59.66100       43.89900       -1.38600
N         59.95500       46.25000        0.98900
C         60.90400       46.96000        1.87800
C         61.49600       45.98800        2.88600
O         62.34300       46.38600        3.67600
C         60.27600       48.21900        2.57300
O         59.24600       47.63400        3.42900
C         59.79300       49.30300        1.63600
N         61.08400       44.74700        2.91500
C         61.57200       43.72300        3.81700
C         61.97200       42.49600        3.00300
O         61.42400       42.27200        1.91700
C         60.51700       43.20400        4.84900
C         60.33500       44.16800        6.01300
C         59.26600       43.97600        6.95500
N         57.90000       43.76200        6.44400
C         56.95900       44.72400        6.49600
N         57.12600       45.96500        6.99600
N         55.74700       44.41700        6.02100
N         62.83100       41.71000        3.60200
C         63.36600       40.45400        3.01400
C         62.26700       39.40900        3.11900
O         61.37200       39.64500        3.95400
C         64.73800       40.18800        3.60800
N         62.24300       38.38000        2.32300
C         61.21100       37.36000        2.37600
C         61.20600       36.61600        3.68700
O         62.28100       36.28100        4.20600
C         61.53200       36.40100        1.20700
C         61.01800       37.06100       -0.07300
O         61.49800       38.14600       -0.45500
N         60.01400       36.43300       -0.68600
N         60.09200       36.31600        4.26300
C         60.04500       35.55000        5.50700
C         60.00800       34.04700        5.25200
O         59.09500       33.62100        4.51900
C         58.78800       36.03900        6.26200
C         58.47700       35.29800        7.55800
C         59.55100       35.71800        8.57200
C         57.05700       35.63600        8.00200
N         60.89000       33.24500        5.82200
C         60.82200       31.78200        5.61600
C         59.65200       31.31700        6.46900
O         59.50300       31.65300        7.63700
C         62.15500       31.10100        5.87100
C         62.10800       29.62000        6.13500
O         61.81900       29.25600        7.29900
O         62.28900       28.68000        5.34500
N         58.82600       30.44600        5.85200
C         57.63500       29.85600        6.44100
C         57.86900       29.04800        7.69000
O         56.98400       29.05000        8.56400
C         56.98800       28.99700        5.34000
C         57.49900       29.60100        4.07000
C         58.92800       29.95500        4.45900
N         59.00400       28.36700        7.81600
C         59.34400       27.61500        9.03700
C         59.61500       28.63000       10.14300
O         59.05900       28.43900       11.25000
C         60.38200       26.56000        8.71200
C         61.10400       26.04300        9.92400
C         59.65500       25.37100        8.04400
N         60.32200       29.71900        9.89200
C         60.57300       30.78700       10.82500
C         59.27000       31.41000       11.32400
O         59.03300       31.58900       12.54900
C         61.51300       31.79800       10.19700
C         62.05600       32.79400       11.23000
C         62.82400       34.02200       10.87000
O         63.36200       34.03300        9.73100
O         62.92400       34.96700       11.65500
N         58.29800       31.63100       10.43400
C         56.94800       32.12000       10.58000
C         56.18000       31.24200       11.56200
O         55.57300       31.77800       12.52100
C         56.24400       32.28200        9.25500
N         56.25600       29.92500       11.40900
C         55.61400       29.03500       12.35800
C         56.22000       29.15800       13.75700
O         55.48800       29.21900       14.77700
C         55.63400       27.62000       11.79900
C         55.02400       26.56900       12.76300
C         54.92500       27.57400       10.45500
N         57.53800       29.20600       13.85700
C         58.25400       29.30000       15.11800
C         57.92200       30.61200       15.76900
O         57.52100       30.63900       16.95600
C         59.79600       29.08400       14.96400
C         59.96400       27.59000       14.80600
N         60.19700       26.98300       13.60500
C         59.85300       26.58800       15.72100
C         60.23300       25.68300       13.79400
N         60.02800       25.40500       15.06100
N         58.03200       31.70300       15.01700
C         57.70400       33.02400       15.60800
C         56.26600       33.12600       16.04800
O         55.96800       33.52000       17.18400
C         58.16300       34.10100       14.64200
C         58.57600       35.33000       15.38500
C         60.00800       35.30700       15.91700
C         59.88100       35.57800       17.44300
N         60.85800       36.65800       17.81500
N         55.26600       32.73600       15.25900
C         53.86600       32.79700       15.57800
C         53.54200       32.02700       16.82900
O         52.89600       32.60500       17.73600
C         52.94800       32.42000       14.36700
C         52.90100       33.52900       13.28200
C         52.13100       32.98000       12.08200
C         52.27300       34.80900       13.78400
N         53.96700       30.77500       16.92700
C         53.74200       29.86700       18.06600
C         54.21800       30.46600       19.37800
O         53.44600       30.42200       20.35300
C         54.30800       28.49100       17.86900
N         55.37100       31.09300       19.41900
C         55.99300       31.77700       20.49300
C         55.24900       32.98700       21.02100
O         55.37400       33.31900       22.22000
C         57.26400       32.40900       20.01500
C         58.60800       31.74700       20.08700
C         59.65200       32.76400       19.66300
O         59.53000       33.78500       20.41900
O         60.45300       32.66600       18.72300
N         54.49100       33.66700       20.16800
C         53.68000       34.83500       20.43500
C         52.34200       34.42200       21.02800
O         51.67500       35.34300       21.53800
C         53.52700       35.71800       19.18700
C         54.71200       36.34900       18.50300
C         54.38200       37.26200       17.31600
C         55.42700       37.24800       19.50000
N         51.92700       33.17700       21.00500
C         50.67100       32.72800       21.56400
C         49.58800       32.41800       20.55500
O         48.40200       32.26700       20.89700
N         49.97300       32.29000       19.29800
C         49.03800       31.96500       18.20800
C         48.59300       30.50700       18.35700
O         49.42500       29.71500       18.83600
C         49.72800       32.08500       16.86000
N         47.42200       30.17900       17.93100
C         46.88800       28.85200       17.96500
C         47.08200       28.14600       16.62900
O         47.09000       26.88000       16.64500
C         45.40000       29.08800       18.20800
C         44.55500       27.88700       17.96700
C         44.56300       26.88000       18.94100
C         43.84100       27.65900       16.78800
C         43.81200       25.71800       18.78300
C         43.09400       26.47900       16.59500
C         43.07800       25.54200       17.60000
O         42.33100       24.36400       17.48700
N         47.09800       28.93500       15.53600
C         47.15700       28.28900       14.19600
C         47.63200       29.25000       13.16200
O         47.86600       30.43800       13.48200
N         47.83700       28.77200       11.96100
C         48.33300       29.53100       10.81100
C         47.50500       29.09800        9.61500
O         46.97700       27.95200        9.55800
C         49.84700       29.22100       10.63100
C         50.45300       30.26100        9.65800
C         50.13600       27.78500       10.09900
C         51.98200       30.17100        9.36700
N         47.29600       30.00600        8.67800
C         46.49200       29.69200        7.44200
C         47.39000       30.05800        6.26300
O         48.44400       30.74400        6.47800
C         45.16300       30.52500        7.42800
O         45.56200       31.91300        7.18700
C         44.25900       30.42500        8.67000
N         47.10000       29.65000        5.05600
C         47.97900       30.03700        3.91000
C         47.14600       29.76500        2.64000
O         46.12600       29.05700        2.63100
C         49.35400       29.32300        3.82400
C         49.20600       27.81800        3.81300
C         48.97500       27.07900        2.64700
C         49.23000       27.09400        5.01300
C         48.76900       25.70000        2.63600
C         49.01300       25.69600        5.02200
C         48.79400       24.97600        3.82600
N         47.65300       30.34900        1.61000
C         47.27000       30.25500        0.21600
C         48.26700       29.17800       -0.34400
O         49.49000       29.28200       -0.00400
C         47.45300       31.44600       -0.72300
C         46.75400       32.70000       -0.37200
N         47.26100       33.72100        0.43500
C         45.52100       33.12800       -0.75200
C         46.38600       34.69600        0.50600
N         45.33000       34.32900       -0.18600
N         47.81600       28.29300       -1.19500
C         48.71500       27.28800       -1.82100
C         50.00500       27.92200       -2.26500
O         51.08900       27.47100       -1.78900
C         47.91700       26.53400       -2.89400
C         47.55100       27.40800       -4.09700
O         47.64900       28.67100       -3.97700
O         47.17000       26.88400       -5.16600
N         50.12500       29.02600       -3.01200
C         51.38700       29.61300       -3.41800
C         52.05200       30.43800       -2.36000
O         53.13900       31.03600       -2.60800
C         51.29500       30.22800       -4.80600
C         50.67300       29.35700       -5.88200
O         49.88400       29.78400       -6.75100
N         50.98700       28.07000       -5.89100
N         51.57900       30.49700       -1.09800
C         52.22500       31.20000        0.01000
C         53.32700       30.17500        0.40600
O         54.39900       30.64100        0.72200
C         51.44600       31.60800        1.22400
C         50.38000       32.65700        1.11600
O         50.57300       33.65300        0.38000
O         49.32100       32.55600        1.76600
N         53.00000       28.89700        0.36500
C         53.98600       27.88500        0.71400
C         54.72500       27.26500       -0.45200
O         55.98000       27.15600       -0.51000
C         53.14900       26.96400        1.64300
C         53.94600       25.96000        2.44300
C         54.78300       26.73400        3.45500
C         52.97300       24.91400        3.00800
N         54.01000       26.77300       -1.45900
C         54.54100       26.09200       -2.64800
C         54.47600       27.01700       -3.85000
O         53.39500       27.45500       -4.28300
C         53.72900       24.79100       -2.89200
C         53.51100       23.91400       -1.63700
C         54.48600       23.94000       -3.96100
C         52.09700       23.29900       -1.63800
N         55.62900       27.31400       -4.42600
C         55.69600       28.21100       -5.58600
C         54.83700       27.69900       -6.69400
O         54.55500       26.50400       -6.77900
C         57.17500       28.30900       -5.94300
C         57.89800       28.00000       -4.65300
C         56.98300       26.88700       -4.03700
N         54.45400       28.56100       -7.61200
C         53.62900       28.24300       -8.77900
C         54.36500       27.23900       -9.67600
O         53.71700       26.32600      -10.20400
C         53.17000       29.47900       -9.55900
C         52.09200       29.32700      -10.57900
C         52.33200       28.86300      -11.86900
C         50.75900       29.63600      -10.25700
C         51.31600       28.70600      -12.80900
C         49.73800       29.50700      -11.18400
C         50.01800       29.03200      -12.46000
N         55.64700       27.39500       -9.86400
C         56.52800       26.61800      -10.69400
C         57.15200       25.39200      -10.05400
O         57.75800       24.61300      -10.82900
C         57.63000       27.53200      -11.29100
C         58.40000       28.25800      -10.18300
O         58.66200       27.69700       -9.07700
O         58.76100       29.46600      -10.44600
N         57.07400       25.22000       -8.77800
C         57.62800       24.06000       -8.10400
C         57.26500       22.70400       -8.74100
O         56.15900       22.40100       -9.17800
C         57.10900       23.99900       -6.66300
N         58.27900       21.86200       -8.70700
C         58.25600       20.47200       -9.15300
C         57.71600       19.66500       -7.98100
O         57.74900       20.15200       -6.83200
C         59.71600       19.95800       -9.47300
O         60.41900       20.04500       -8.17500
C         60.45200       20.72600      -10.56000
N         57.35600       18.40800       -8.17800
C         56.84600       17.52700       -7.14400
C         57.85300       17.23500       -6.03900
O         57.38300       16.97000       -4.90600
C         56.29200       16.17800       -7.63000
N         59.12600       17.23900       -6.33500
C         60.24700       17.03200       -5.43700
C         60.32000       18.25100       -4.51100
O         60.37200       18.10700       -3.28200
C         61.52900       16.81300       -6.22000
N         60.27100       19.43700       -5.10900
C         60.27300       20.69000       -4.33000
C         59.03300       20.72600       -3.44700
O         59.12400       20.89400       -2.22400
C         60.28300       21.91100       -5.20800
C         61.55400       22.14000       -6.01300
C         61.32200       22.98200       -7.24500
O         60.76000       24.07500       -6.96400
O         61.65100       22.58900       -8.35200
N         57.85700       20.52700       -3.99800
C         56.60800       20.50800       -3.23400
C         56.72300       19.59600       -2.03000
O         56.49600       20.03600       -0.86800
C         55.41900       20.20700       -4.12600
C         54.07200       20.07300       -3.42300
C         52.95800       19.95000       -4.37400
N         51.61900       19.98000       -3.85500
C         51.08100       19.06300       -3.03700
N         51.79100       18.01300       -2.59900
N         49.80200       19.18000       -2.63300
N         57.10500       18.33700       -2.16600
C         57.26500       17.37300       -1.06800
C         58.29700       17.82300       -0.06300
O         58.10500       17.66700        1.16400
C         57.48000       15.95000       -1.54700
C         56.26800       15.19400       -2.10400
C         56.09900       13.70700       -1.98000
O         56.64600       12.95300       -1.15500
O         55.28500       13.16100       -2.81100
N         59.38800       18.43000       -0.44900
C         60.44900       18.99200        0.38000
C         59.90200       20.11600        1.26300
O         60.11000       20.11500        2.50100
C         61.56300       19.50500       -0.50600
C         62.98000       19.32800       -0.03000
C         63.33700       20.08600        1.24000
C         63.32700       21.59400        0.99400
N         64.25300       22.28000        1.95600
N         59.19900       21.08200        0.65700
C         58.56000       22.19600        1.35600
C         57.57900       21.66600        2.41200
O         57.73200       21.97300        3.60000
C         57.91800       23.21800        0.36700
C         58.98200       23.83100       -0.57600
C         57.12900       24.33500        1.12500
C         58.40800       24.59800       -1.80100
N         56.60100       20.86800        2.08000
C         55.63100       20.28300        2.99400
C         56.20700       19.49700        4.14000
O         55.63600       19.60300        5.25800
C         54.60100       19.45600        2.20000
C         53.63600       20.23200        1.36200
C         52.73200       19.28900        0.57400
C         52.74700       21.05800        2.30700
N         57.24800       18.71300        3.96800
C         57.89300       17.95100        5.01200
C         58.51000       18.91700        6.02700
O         58.28800       18.67900        7.23400
N         59.22100       19.96400        5.62400
C         59.77500       20.89900        6.60300
C         58.63300       21.66700        7.28200
O         58.67000       21.81300        8.52000
C         60.75000       21.90200        6.08100
C         61.99100       21.40500        5.39700
O         62.20500       20.17800        5.46900
O         62.70100       22.26000        4.80500
N         57.66600       22.11700        6.49700
C         56.49600       22.83800        6.96700
C         55.78100       21.94500        7.97100
O         55.57700       22.46400        9.07600
C         55.55800       23.35700        5.87900
C         54.49800       24.29600        6.41000
C         54.82300       25.60900        6.71800
C         53.19000       23.84100        6.63900
C         53.87400       26.47600        7.19300
C         52.22800       24.71500        7.14600
C         52.57500       26.05800        7.41800
N         55.46100       20.70800        7.66600
C         54.81000       19.81100        8.60900
C         55.62200       19.50000        9.86300
O         54.99200       19.28000       10.90300
C         54.33500       18.53100        7.96300
C         53.07400       18.75200        7.15500
O         53.19300       18.97400        5.94700
N         51.93400       18.64900        7.85200
N         56.92500       19.46300        9.84500
C         57.82000       19.26100       10.95800
C         57.66700       20.44600       11.92900
O         57.51200       20.18900       13.12500
C         59.30100       19.10300       10.59700
C         60.20200       18.81100       11.80300
C         59.84300       17.44500       12.40300
O         59.89600       16.46000       11.68000
N         59.46800       17.44200       13.66700
N         57.68900       21.66700       11.41600
C         57.50600       22.93100       12.17200
C         56.17200       22.93600       12.89500
O         56.06300       23.19100       14.11200
C         57.71100       24.16100       11.30200
N         55.07700       22.54600       12.26400
C         53.75400       22.43700       12.82600
C         53.88700       21.52000       14.04300
O         53.41200       21.85900       15.14200
C         52.63600       21.98200       11.87000
C         52.40200       22.78700       10.58400
C         51.20700       22.22500        9.84900
C         52.18200       24.27300       10.86900
N         54.48600       20.34800       13.79900
C         54.74500       19.32200       14.82100
C         55.50600       19.95100       15.97300
O         55.00800       20.18700       17.10200
C         55.39700       18.10100       14.18500
N         56.70600       20.40100       15.77200
C         57.53300       21.02800       16.78400
C         56.82700       21.99900       17.70200
O         57.13400       22.03100       18.92000
C         58.76700       21.66600       16.13800
C         59.60200       20.67400       15.36200
O         59.36200       19.43500       15.39000
O         60.53000       21.13000       14.66800
N         55.97300       22.86800       17.23900
C         55.20700       23.90100       17.85100
C         53.78300       23.54400       18.20800
O         53.22500       24.22400       19.08700
C         55.13600       25.16000       16.84800
O         54.18600       24.75600       15.80000
C         56.44400       25.54600       16.21100
N         53.11300       22.62300       17.58000
C         51.71800       22.36600       17.86100
C         50.79000       23.37700       17.15600
O         49.57300       23.32200       17.55500
N         51.14600       24.24500       16.22200
C         50.16500       25.10500       15.59200
C         49.26200       24.22400       14.69000
O         49.79900       23.29700       14.05400
C         50.75900       26.17000       14.68900
C         51.70200       27.16100       15.19900
C         52.02200       28.21700       14.10600
C         51.09500       27.89000       16.37800
N         48.00100       24.59200       14.67900
C         47.07300       23.87300       13.79700
C         47.07600       24.72100       12.50800
O         47.71600       25.77400       12.41300
C         45.68800       23.79200       14.31900
C         45.47500       23.61200       15.79900
C         45.73600       22.19000       16.18500
C         45.03400       21.84200       17.51300
N         44.74300       20.36200       17.39600
N         46.36800       24.24300       11.50300
C         46.13900       24.85800       10.19800
C         44.61200       24.72800        9.98100
O         44.15600       23.76600        9.32500
C         46.85300       24.15800        9.03400
C         46.58200       24.84500        7.68000
C         48.34600       24.03600        9.20600
N         43.85500       25.68600       10.53900
C         42.40400       25.71600       10.49700
C         41.81800       26.09500        9.15800
O         40.66500       25.67700        8.89100
C         41.96800       26.66600       11.63300
C         43.18400       26.99200       12.43500
C         44.29900       26.84400       11.36100
N         42.55200       26.85100        8.34500
C         41.95300       27.24500        7.05400
C         43.04400       27.23300        6.02900
O         44.20000       27.64100        6.33000
C         41.29700       28.61900        7.21400
C         40.78500       29.20600        5.93900
S         41.99500       30.09000        4.96800
C         42.12400       31.73100        5.66800
N         42.64100       26.81400        4.82300
C         43.57300       26.80000        3.64900
C         42.83000       27.54100        2.51600
O         41.60200       27.52500        2.43900
C         44.08700       25.38800        3.33700
C         44.67000       25.27800        1.90400
C         45.18900       24.88100        4.26200
N         43.58800       28.23800        1.69500
C         42.97900       28.97800        0.56800
C         43.85400       28.90100       -0.66900
O         45.00900       28.42900       -0.60700
C         42.53200       30.43500        1.02500
O         41.71800       30.97900       -0.06300
C         43.64000       31.32600        1.49500
N         43.30100       29.29500       -1.82900
C         44.01000       29.23700       -3.09800
C         44.29300       30.60700       -3.64200
O         43.50500       31.52200       -3.50000
C         43.16900       28.43800       -4.19200
O         42.41800       27.39400       -3.44300
C         43.93400       27.78500       -5.34100
N         45.42200       30.72500       -4.29000
C         45.81000       31.97200       -4.97500
C         45.23900       31.84200       -6.41400
O         45.73600       31.08300       -7.25800
C         47.29300       32.22700       -4.92900
C         47.65100       33.61900       -5.48000
O         47.11100       34.05200       -6.50500
N         48.54700       34.38100       -4.83400
N         44.21500       32.59700       -6.71500
C         43.54800       32.69500       -7.98500
C         43.59800       34.16500       -8.42200
O         42.69500       34.62600       -9.10300
C         42.13000       32.16100       -8.00300
C         41.87500       30.71700       -7.64100
C         40.40700       30.41300       -7.76400
C         42.74700       29.80600       -8.50500
N         44.69500       34.83400       -8.06000
C         44.83400       36.24100       -8.40600
C         46.21100       36.76600       -8.74800
O         46.18300       37.85200       -9.35600
C         44.24500       37.08600       -7.20700
C         44.83700       36.74400       -5.84700
C         46.00200       37.24500       -5.36300
C         44.14900       35.80800       -5.05300
C         46.50200       36.85700       -4.13300
C         44.59000       35.38200       -3.81200
C         45.80000       35.94900       -3.36200
N         47.33100       36.18300       -8.38900
C         48.64600       36.81800       -8.69800
C         49.28800       36.54600      -10.03200
O         49.90100       37.47200      -10.62800
C         49.69600       36.44400       -7.64700
O         49.06700       36.33900       -6.38500
N         49.18500       35.31100      -10.47900
C         49.81300       35.02500      -11.80000
C         49.06200       35.77700      -12.87200
O         47.80800       35.89800      -12.85600
C         49.78900       33.51200      -12.06400
C         50.49300       33.00600      -13.27300
N         51.72000       32.39100      -13.26400
C         50.13200       32.99700      -14.56800
C         52.08600       32.02700      -14.46500
N         51.13500       32.41400      -15.27600
N         49.75600       36.20000      -13.94500
C         49.10100       36.85700      -15.08400
C         47.98600       36.03500      -15.68700
O         47.09000       36.70700      -16.25100
C         50.22800       37.11400      -16.07600
C         51.44100       37.33200      -15.17500
C         51.22600       36.20100      -14.13000
N         47.77000       34.74700      -15.63900
C         46.71100       34.01700      -16.20300
C         45.36700       34.37300      -15.61200
O         44.33700       34.23900      -16.35000
C         47.03400       32.48400      -16.14400
C         46.93500       31.83800      -14.79900
C         46.19700       31.74600      -17.17800
N         45.31000       34.74600      -14.36000
C         44.12200       35.13000      -13.61600
C         43.84200       36.60900      -13.70100
O         43.06900       37.10700      -12.90100
C         44.19200       34.64400      -12.17900
C         44.50100       33.20200      -11.98800
C         43.69600       32.20700      -12.51300
C         45.63100       32.86800      -11.20600
C         44.00000       30.85300      -12.27800
C         45.94600       31.53400      -10.97700
C         45.12500       30.51400      -11.52800
N         44.29500       37.38600      -14.66600
C         44.04600       38.79800      -14.87600
C         42.59000       39.15800      -15.14100
O         42.29500       40.36100      -14.96900
C         44.96700       39.37800      -15.93400
C         44.75800       39.10300      -17.38000
C         45.93800       39.08300      -18.31800
C         45.38300       39.13300      -19.75300
N         46.54600       39.42900      -20.67900
N         41.70800       38.27300      -15.56400
C         40.29700       38.42600      -15.82600
C         39.52900       37.50200      -14.85000
O         38.32000       37.39100      -14.91900
C         39.83800       38.26100      -17.28600
C         38.39800       38.71200      -17.53000
O         37.96700       39.77200      -16.99100
O         37.60900       37.96900      -18.15300
N         40.24200       36.83200      -13.94400
C         39.61900       35.99400      -12.97800
C         40.00200       34.54100      -13.08100
O         40.71100       34.12700      -13.99400
N         39.55600       33.79200      -12.11300
C         39.74200       32.36800      -11.99300
C         38.43100       31.83300      -12.57000
O         38.33200       31.76200      -13.81400
N         37.46800       31.45600      -11.71600
C         36.17800       30.90500      -12.08800
C         35.29400       31.63800      -13.07200
O         34.43700       30.92700      -13.68200
C         35.34200       30.66300      -10.81000
C         35.79200       29.66100       -9.82500
C         36.90300       28.81800       -9.99800
C         35.04400       29.52500       -8.67200
C         37.31400       27.89600       -9.09300
C         35.45600       28.57900       -7.69400
C         36.58600       27.78900       -7.93300
N         35.38300       32.94900      -13.20000
C         34.63000       33.80100      -14.04500
C         35.48000       34.42900      -15.12000
O         35.05700       35.42300      -15.72000
C         33.84300       34.94900      -13.25400
O         34.81900       35.94300      -12.80100
C         32.91500       34.34800      -12.19800
N         36.66600       33.94100      -15.39400
C         37.47900       34.46900      -16.51100
C         36.70500       34.34600      -17.80900
O         36.04900       33.20500      -18.02400
C         38.76500       33.61000      -16.62700
O         39.55200       34.17400      -17.66500
N         36.79600       35.30300      -18.73200
C         36.05000       35.15100      -20.02500
C         36.58000       33.95500      -20.83800
O         35.78100       33.41000      -21.61700
C         35.99600       36.39500      -20.90700
C         35.00300       37.48600      -20.55800
O         34.17600       37.27200      -19.65900
N         35.03000       38.67500      -21.17200
N         37.81800       33.55400      -20.77900
C         38.50300       32.45100      -21.34800
C         38.16100       31.16200      -20.59700
O         38.49800       30.98800      -19.41200
C         40.02800       32.69700      -21.26200
C         40.79900       31.61500      -22.01600
O         40.89500       30.44300      -21.55700
O         41.28800       32.02100      -23.06900
N         37.58500       30.19500      -21.29000
C         37.18100       28.91100      -20.75600
C         38.27200       28.01800      -20.24600
O         38.10400       27.28600      -19.26200
C         36.35700       28.20700      -21.84400
C         35.92000       26.80500      -21.47200
C         34.75000       26.31600      -22.25400
N         34.25100       25.02500      -21.76200
C         34.83800       23.85000      -22.00900
N         35.94100       23.72600      -22.74000
N         34.29500       22.74300      -21.49600
N         39.44500       28.07900      -20.88300
C         40.62300       27.27700      -20.58300
C         41.25000       27.76700      -19.29500
O         41.79000       26.91300      -18.52700
C         41.56400       27.15800      -21.74200
O         42.47700       28.23000      -21.77300
N         41.14900       29.08900      -19.01300
C         41.60000       29.64600      -17.72600
C         40.59200       29.20000      -16.63500
O         40.99800       28.79600      -15.50100
C         41.86300       31.19400      -17.78800
C         42.92200       31.50600      -18.84500
C         42.22500       31.66500      -16.34900
C         43.08900       32.88200      -19.44600
N         39.27300       29.15500      -16.99500
C         38.26900       28.69000      -16.03800
C         38.50400       27.25000      -15.59900
O         38.45500       27.04300      -14.37300
C         36.82700       28.90500      -16.47200
C         36.58100       30.40900      -16.82700
C         35.11800       30.55500      -16.87600
N         34.41800       29.78900      -17.87600
C         34.26700       30.17800      -19.15300
N         34.72900       31.29600      -19.71200
N         33.56200       29.40500      -19.95900
N         38.80000       26.31300      -16.50700
C         39.10600       24.89400      -16.12600
C         40.41500       24.84100      -15.34600
O         40.44700       24.09800      -14.37500
C         39.12400       23.94800      -17.34100
C         37.95400       24.21700      -18.27200
C         37.92500       23.47400      -19.54500
N         38.26500       22.09100      -19.40200
C         37.47500       21.06500      -19.07700
N         36.19700       21.35400      -18.86100
N         38.00900       19.84800      -18.97700
N         41.45900       25.58700      -15.65300
C         42.71400       25.62600      -14.94500
C         42.49700       26.11000      -13.50700
O         42.97800       25.48000      -12.53100
C         43.79700       26.39600      -15.69900
C         45.08800       26.45800      -14.90900
C         45.82600       25.29200      -14.60000
C         45.55300       27.68600      -14.46300
C         47.02100       25.41500      -13.84300
C         46.72700       27.82600      -13.70500
C         47.42900       26.67000      -13.42300
N         41.76400       27.20100      -13.29800
C         41.42400       27.76400      -11.97700
C         40.66000       26.78100      -11.11700
O         40.94100       26.53100       -9.96300
C         40.57700       28.97600      -12.20200
N         39.66300       26.14500      -11.68200
C         38.89300       25.10600      -10.97000
C         39.76300       23.90400      -10.64100
O         39.55200       23.32900       -9.55100
C         37.60400       24.82800      -11.75300
C         36.71300       23.78300      -11.13800
C         36.29300       24.08500       -9.65900
C         35.44400       23.49700      -11.97700
N         40.73800       23.45000      -11.42000
C         41.59000       22.30000      -11.22600
C         42.57800       22.63700      -10.11900
O         42.86300       21.78300       -9.26700
C         42.37300       21.88400      -12.48900
N         43.06800       23.90800      -10.13300
C         43.96800       24.44100       -9.12600
C         43.24200       24.39400       -7.77500
O         43.86300       23.93600       -6.78500
C         44.40500       25.83500       -9.47300
C         45.64000       26.35700       -8.73900
C         45.93900       27.78500       -9.00900
C         47.38600       28.13500       -8.75400
N         47.58100       28.75300       -7.43300
N         41.95700       24.77900       -7.67700
C         41.16100       24.71900       -6.47500
C         40.93800       23.24400       -6.08800
O         41.03900       22.91100       -4.89400
C         39.81800       25.47600       -6.56500
C         38.76400       25.06500       -5.48900
C         40.01200       26.94000       -6.53500
N         40.59900       22.37600       -7.05900
C         40.32400       20.95400       -6.72600
C         41.53600       20.32700       -6.06000
O         41.36200       19.68500       -4.99400
C         39.65100       20.25100       -7.91200
C         38.20000       20.49100       -8.25600
C         37.71500       19.64800       -9.42500
C         37.26600       20.21000       -7.07300
N         42.75100       20.46600       -6.52800
C         43.96900       19.92300       -5.95800
C         44.22200       20.50500       -4.57900
O         44.60700       19.78800       -3.65400
C         45.24400       20.14100       -6.83500
C         45.16600       19.22700       -8.00800
N         44.87600       19.64200       -9.29800
C         45.29600       17.89500       -8.06500
C         44.84800       18.58600      -10.11100
N         45.10100       17.53700       -9.37200
N         43.98100       21.76300       -4.36700
C         44.07900       22.52000       -3.14300
C         43.14300       22.04800       -2.05200
O         43.54000       22.09300       -0.85400
C         44.02100       23.99800       -3.50400
C         44.81200       24.67400       -2.40600
O         45.84200       24.19100       -1.97200
N         44.27700       25.81400       -1.98600
N         41.96400       21.49600       -2.31500
C         41.01600       20.91200       -1.37400
C         41.63100       19.67400       -0.69300
O         41.43300       19.33200        0.50500
C         39.62900       20.59800       -2.06100
C         38.91700       21.94400       -2.24500
C         38.73100       19.58200       -1.30800
C         37.59000       22.11700       -2.96800
N         42.38800       18.92800       -1.50000
C         43.12300       17.72100       -1.18100
C         44.22200       18.13600       -0.22200
O         44.32900       17.53300        0.85000
C         43.63700       16.96300       -2.41600
C         42.59700       16.21100       -3.16100
O         41.47100       15.99500       -2.67800
O         42.75300       15.78500       -4.31900
N         44.97000       19.16900       -0.56100
C         45.98300       19.65700        0.38200
C         45.25600       20.14500        1.63100
O         45.65500       19.70300        2.74600
C         46.89900       20.64300       -0.31000
C         47.96800       21.23700        0.60400
C         48.93300       20.11200        1.02100
C         48.71200       22.38100       -0.05300
N         44.17800       20.94200        1.56600
C         43.45000       21.41500        2.74900
C         43.07100       20.26100        3.66800
O         43.36600       20.28600        4.88000
C         42.27000       22.32400        2.43100
N         42.43700       19.23400        3.15700
C         42.01800       18.02900        3.86700
C         43.21800       17.38000        4.50600
O         43.23700       17.20900        5.76200
C         41.23900       17.17500        2.92800
N         44.30200       17.10800        3.83200
C         45.55800       16.54100        4.37000
C         46.12900       17.27000        5.55800
O         46.67400       16.72100        6.54600
C         46.56700       16.53000        3.25200
C         47.95400       15.94000        3.27800
C         48.81800       16.59000        2.17700
O         48.37200       16.21600        1.03800
O         49.76000       17.35900        2.41900
N         46.05600       18.59900        5.60100
C         46.49900       19.51400        6.61900
C         45.57000       19.57800        7.82100
O         46.00900       20.15200        8.82100
C         46.65600       20.92200        6.06000
C         47.67300       20.97600        4.99600
S         49.31400       21.43400        5.68800
C         50.21500       20.22800        4.68500
N         44.36900       19.08700        7.75200
C         43.38600       19.11300        8.79800
C         42.66600       20.44200        8.92300
O         42.26200       20.76800       10.05600
N         42.48900       21.18400        7.85300
C         41.79200       22.48500        7.87700
C         40.30400       22.17400        7.99300
O         39.95600       21.13000        7.41000
C         42.15100       23.24100        6.62300
N         39.45500       22.95000        8.64000
C         38.01400       22.71300        8.69500
C         37.35400       23.62700        7.64100
O         36.24000       23.49500        7.15200
C         37.35000       23.13200        9.97700
C         38.09700       23.43500       11.23200
C         37.86500       24.71800       11.98500
O         37.12100       25.62000       11.48000
O         38.39300       25.03800       13.08300
N         38.03300       24.69400        7.25400
C         37.54200       25.69400        6.31400
C         38.45800       25.92400        5.11400
O         39.69700       26.00500        5.27900
C         37.30300       27.10900        7.01600
O         36.53700       26.83100        8.24800
C         36.63700       28.19000        6.19600
N         37.79000       26.05000        4.01500
C         38.48200       26.32000        2.71800
C         37.96100       27.69600        2.26700
O         36.75800       27.82400        1.94600
C         38.18600       25.15700        1.74800
C         39.00200       25.28600        0.48900
C         40.30700       24.76500        0.44300
C         38.47500       25.92600       -0.63200
C         41.08100       24.87200       -0.67700
C         39.24000       26.03600       -1.79100
C         40.55700       25.52300       -1.80300
N         38.79800       28.69100        2.32100
C         38.32100       30.03000        1.94200
C         38.51300       30.18800        0.44700
O         39.43700       29.73300       -0.22000
C         38.89300       31.14400        2.83400
C         38.81700       32.57200        2.30600
C         38.23700       31.03400        4.23400
N         37.57100       30.97100       -0.07900
C         37.52500       31.40000       -1.47300
C         37.39700       32.92800       -1.57900
O         36.24200       33.41200       -1.44000
C         36.42000       30.69600       -2.27500
C         36.69700       29.25300       -2.59300
S         35.38900       28.75800       -3.69600
C         35.52000       27.00000       -3.76000
N         38.46300       33.61300       -1.87800
C         38.39900       35.06200       -2.13000
C         38.51300       35.27200       -3.65500
O         39.59500       35.16200       -4.23000
C         39.50000       35.86800       -1.45000
C         39.45000       37.29900       -1.86000
C         38.34800       38.10800       -1.79100
C         40.50700       38.06300       -2.44200
N         38.64900       39.34100       -2.27500
C         39.98200       39.37900       -2.66300
C         41.84100       37.78700       -2.78300
C         40.75200       40.38800       -3.22400
C         42.59400       38.80400       -3.34200
C         42.05800       40.08400       -3.54800
N         37.46900       35.62800       -4.34900
C         37.43500       35.83700       -5.80100
C         37.85100       37.23000       -6.18100
O         37.05000       38.00000       -6.70400
N         39.09500       37.57500       -5.94700
C         39.69000       38.83900       -6.16400
C         39.79300       39.39400       -7.56000
O         39.83300       40.64800       -7.73300
N         39.85600       38.49200       -8.54500
C         39.90800       39.01600       -9.91800
C         38.55600       38.76900      -10.61500
O         38.53600       39.02000      -11.86800
C         41.07500       38.45100      -10.71900
C         42.47700       38.62400      -10.22500
C         43.04800       39.94100      -10.57800
N         44.41100       40.01200      -10.04200
C         45.16500       41.10400       -9.96600
N         44.70400       42.26300      -10.40600
N         46.35700       40.97700       -9.40400
N         37.53400       38.33100       -9.90500
C         36.21600       38.10500      -10.55900
C         35.50500       39.46300      -10.54300
O         35.02400       39.89700       -9.45000
C         35.39500       37.09200       -9.85500
C         36.11400       35.87500       -9.29300
C         37.03900       35.11800      -10.20200
O         36.64900       34.98200      -11.38400
O         38.13000       34.64100       -9.85700
N         35.41600       40.09300      -11.71900
C         34.81700       41.39300      -11.85000
C         35.17400       42.08700      -13.11300
O         35.41100       41.38900      -14.11800
N         35.25500       43.41400      -13.09800
C         35.52200       44.21600      -14.28000
C         35.82600       45.66500      -13.95200
O         35.61200       46.04700      -12.79100
C         34.25800       44.22200      -15.19200
O         33.14800       44.80800      -14.49900
N         36.32900       46.38000      -14.95000
C         36.64100       47.80600      -14.79300
C         35.59200       48.58800      -15.53500
O         35.28200       49.77500      -15.38900
C         38.04100       48.16100      -15.23200
C         39.18800       47.82800      -14.25300
C         39.40400       46.34000      -14.12500
O         39.74300       45.69000      -15.12500
O         39.18000       45.80000      -13.01300
N         34.97300       47.92700      -16.54000
C         33.98300       48.44900      -17.49100
C         32.78800       47.53500      -17.48400
O         32.85700       46.26900      -17.37400
C         34.59700       48.60900      -18.92900
C         36.02700       49.06400      -18.96400
C         36.31100       50.38500      -18.58500
C         37.12900       48.21300      -19.20500
C         37.61800       50.88900      -18.51600
C         38.45200       48.75000      -19.13200
C         38.68500       50.02600      -18.75000
O         39.96200       50.41700      -18.71500
N         31.58500       48.08400      -17.56200
C         30.31700       47.33600      -17.47900
C         30.03000       46.42800      -18.61900
O         29.34200       45.41000      -18.37300
C         29.11700       48.27100      -17.21600
C         29.28000       49.15900      -16.00700
O         30.10800       48.82700      -15.14100
O         28.61300       50.19000      -15.86700
N         30.52700       46.69700      -19.80500
C         30.30800       45.84900      -20.97400
C         31.24400       44.70000      -21.12500
O         31.08100       43.94400      -22.09000
N         32.20300       44.46400      -20.25300
C         33.19500       43.41800      -20.27400
C         32.69300       42.01400      -20.04900
O         33.36200       41.01900      -20.43100
C         34.25400       43.60900      -19.17300
O         35.06400       44.66400      -19.55100
N         31.58800       41.86000      -19.35600
C         30.95600       40.69300      -18.91800
C         29.46000       40.61000      -19.18600
O         28.74600       41.62800      -19.25300
C         31.06200       40.72600      -17.35000
C         32.39600       40.52100      -16.70900
C         33.14400       39.26900      -17.14200
C         34.65400       39.37300      -16.98300
N         35.12300       37.93400      -16.94700
N         29.05200       39.35600      -19.28800
C         27.62400       39.05000      -19.37600
C         27.44200       38.76400      -17.85200
O         27.96800       37.71600      -17.39900
C         27.30500       37.85000      -20.21200
C         25.88300       37.30500      -20.03400
O         25.29700       37.22600      -18.95200
O         25.36000       36.93600      -21.11900
N         26.74600       39.61800      -17.19000
C         26.52200       39.52900      -15.73700
C         25.80900       38.30600      -15.23800
O         26.22300       37.87800      -14.11700
C         26.00300       40.90300      -15.25700
C         26.94700       42.04800      -15.53000
C         26.23200       43.35500      -15.19100
C         28.18700       41.94600      -14.66200
N         24.86100       37.74100      -15.94400
C         24.14400       36.49100      -15.61700
C         25.14500       35.36600      -15.85200
O         25.33100       34.48900      -14.95300
C         22.83600       36.43100      -16.42400
N         25.89400       35.36800      -16.98400
C         26.88300       34.32100      -17.24600
C         27.96700       34.24000      -16.20600
O         28.41600       33.14400      -15.75900
C         27.45000       34.38300      -18.65700
N         28.47500       35.43400      -15.74200
C         29.51300       35.53200      -14.70600
C         29.07800       34.78900      -13.46800
O         29.86300       33.95700      -12.93000
C         30.01700       36.93300      -14.47900
N         27.85000       34.91600      -12.97900
C         27.24900       34.28000      -11.82400
C         26.98500       32.81500      -12.05600
O         27.19200       32.01900      -11.07500
C         26.11900       35.17100      -11.36800
C         26.30700       36.56400      -10.77500
C         24.93000       37.26100      -10.81000
C         26.84300       36.43700       -9.35700
N         26.61400       32.36000      -13.25400
C         26.42900       30.93800      -13.59200
C         27.77100       30.19000      -13.50000
O         27.81900       29.06800      -12.94600
C         25.89700       30.73100      -14.98600
C         24.46100       31.11200      -15.16000
O         23.65300       31.13700      -14.20700
O         24.18800       31.37100      -16.33800
N         28.80100       30.85000      -14.03900
C         30.16400       30.32600      -13.96200
C         30.65600       30.33900      -12.52800
O         31.33400       29.38500      -12.10600
C         31.07800       31.07900      -14.92600
C         30.75000       30.95500      -16.40100
C         30.84700       29.54000      -16.94500
N         29.73900       28.67400      -16.66500
C         28.53700       28.85900      -17.20900
N         28.30100       29.87000      -18.06400
N         27.53500       28.04900      -16.93400
N         30.37800       31.36300      -11.70100
C         30.81000       31.40300      -10.28400
C         30.12500       30.24100       -9.60900
O         30.79600       29.45500       -8.91400
C         30.62200       32.76000       -9.61200
C         31.14000       32.77800       -8.20600
S         32.84800       33.45000       -8.20900
C         32.50800       35.22300       -8.14400
N         28.81600       30.03400       -9.76600
C         28.05300       28.91200       -9.19900
C         28.64600       27.56000       -9.54800
O         28.89300       26.67600       -8.69100
C         26.62100       28.95500       -9.68500
C         25.66500       27.98700       -9.02100
C         24.59200       27.69600       -9.96200
N         23.35500       28.35100       -9.79400
C         22.64800       28.93300      -10.75300
N         23.01300       29.04200      -11.99700
N         21.49700       29.47000      -10.31700
N         28.94600       27.37500      -10.84600
C         29.58500       26.16700      -11.37800
C         30.87700       25.89300      -10.64700
O         31.07500       24.77700      -10.15100
C         29.84200       26.25200      -12.85700
C         30.28000       24.99600      -13.59000
C         30.42300       25.24900      -15.08100
O         30.48100       26.39100      -15.57600
O         30.44500       24.15600      -15.69200
N         31.78900       26.80600      -10.46200
C         33.00000       26.50700       -9.74700
C         32.76600       26.10100       -8.33700
O         33.35900       25.09100       -7.89800
N         31.94900       26.83300       -7.57700
C         31.71700       26.60600       -6.15200
C         30.99900       25.32300       -5.94400
O         31.38900       24.62300       -5.01200
C         31.05500       27.82500       -5.46100
C         30.59700       27.51600       -4.03300
C         31.88600       29.11200       -5.60600
N         30.00100       25.00200       -6.75900
C         29.24000       23.71100       -6.64500
C         30.16500       22.59000       -7.09200
O         30.21700       21.58400       -6.38800
C         27.93900       23.80100       -7.37400
C         26.71800       24.18100       -6.59900
O         26.60600       23.99400       -5.37000
O         25.79700       24.66100       -7.25100
N         30.99700       22.75500       -8.13400
C         31.90700       21.66800       -8.43200
C         32.77800       21.45900       -7.22300
O         32.72100       20.29400       -6.78800
C         32.72000       21.77500       -9.76000
O         31.66100       21.99700      -10.74400
C         33.60100       20.55100      -10.03700
N         33.47000       22.40000       -6.65500
C         34.29600       22.22100       -5.45800
C         33.59800       21.64700       -4.22200
O         34.17100       20.81500       -3.43900
C         34.95400       23.52600       -5.10400
N         32.37600       22.03800       -3.94900
C         31.52100       21.67100       -2.84100
C         31.14800       20.20800       -2.98400
O         31.24100       19.38800       -2.04400
C         30.36300       22.65000       -2.73100
N         30.77200       19.81500       -4.20400
C         30.43500       18.45000       -4.57400
C         31.64000       17.52600       -4.41800
O         31.49900       16.37700       -3.98000
N         32.85300       17.97900       -4.73800
C         34.08800       17.20200       -4.60200
C         34.32600       16.94100       -3.12500
O         34.58700       15.77200       -2.77600
C         35.23800       17.79600       -5.33100
C         36.55900       17.09000       -5.22900
C         36.86900       15.95300       -5.97400
C         37.53600       17.60300       -4.35000
C         38.09700       15.31800       -5.87400
C         38.76300       16.96800       -4.23600
C         39.03100       15.81300       -4.99300
O         40.28500       15.28600       -4.80000
N         34.17700       17.93300       -2.24400
C         34.30800       17.71900       -0.78100
C         33.36900       16.59600       -0.28500
O         33.74500       15.62300        0.41100
C         34.12900       19.07300        0.00800
C         35.29700       20.00500       -0.37300
C         34.04600       18.91000        1.54300
C         35.08600       21.48200        0.04200
N         32.09300       16.71300       -0.63400
C         30.98500       15.83700       -0.34600
C         31.33800       14.46600       -0.89300
O         31.34100       13.53600       -0.05900
C         29.67400       16.38500       -0.83500
C         29.01200       17.36600        0.16300
C         27.73700       17.88200       -0.48900
C         26.88400       18.74300        0.41700
N         25.64600       19.15500       -0.30200
N         31.74700       14.33700       -2.14800
C         32.15900       13.08500       -2.75700
C         33.34600       12.39200       -2.10300
O         33.38600       11.16700       -2.28600
C         32.50600       13.14300       -4.27500
C         31.30000       13.27100       -5.15800
O         30.20500       12.84500       -4.69700
O         31.37700       13.80000       -6.29400
N         34.27800       12.98900       -1.46100
C         35.43700       12.41500       -0.84800
C         35.31600       12.33500        0.65900
O         36.27500       11.98300        1.39500
C         36.63000       13.36500       -1.10600
C         36.92800       13.56500       -2.56000
C         37.70500       12.52800       -3.25200
C         39.02400       12.13400       -2.60900
N         39.80300       11.34100       -3.62600
N         34.17500       12.81500        1.13700
C         33.82300       12.92600        2.52600
C         34.82600       13.74400        3.32800
O         35.10300       13.34900        4.48100
N         35.34300       14.84700        2.82300
C         36.29100       15.64700        3.59500
C         35.41100       16.42300        4.56000
O         34.24500       16.78600        4.28900
C         37.08500       16.47900        2.67000
C         38.10700       15.86500        1.79200
C         38.89900       14.76900        2.10800
C         38.32000       16.47000        0.53200
C         39.86300       14.29500        1.21700
C         39.29500       16.02400       -0.37200
C         40.07200       14.92100       -0.00700
O         41.02900       14.40800       -0.79400
N         35.96100       16.68800        5.69200
C         35.35900       17.46500        6.76400
C         35.76600       18.92200        6.55000
O         36.63700       19.40800        7.29000
C         35.97200       16.89900        8.05700
C         34.78700       16.81900        9.03500
O         34.67800       17.73200        9.86200
N         34.07500       15.69700        8.74900
N         35.21600       19.60200        5.57000
C         35.51400       20.95400        5.19900
C         34.26100       21.71500        4.73100
O         33.40000       21.07800        4.08500
C         36.41400       20.98700        3.95800
C         37.86900       20.75000        3.86700
C         38.24700       20.84400        2.37500
C         38.63700       21.80700        4.63100
N         34.25600       22.98400        5.02200
C         33.16200       23.86700        4.57000
C         33.82100       24.92000        3.72400
O         35.01100       25.22100        4.01000
C         32.44800       24.49500        5.77400
C         31.49300       23.48500        6.39000
C         30.61700       23.91800        7.44300
N         31.24600       24.85000        8.35700
C         30.60400       25.38000        9.41900
N         29.34800       25.01300        9.69700
N         31.26200       26.29100       10.18700
N         33.15100       25.47200        2.75700
C         33.70100       26.56200        1.91400
C         33.22200       27.91600        2.49200
O         32.03900       28.05600        2.87800
C         33.25400       26.41300        0.42700
C         33.83300       25.11300       -0.21700
C         33.51900       27.69500       -0.42700
C         32.98100       24.67000       -1.44000
N         34.07600       28.88700        2.47100
C         33.68000       30.20600        2.97800
C         34.02200       31.19800        1.91300
O         35.21500       31.37400        1.50000
C         34.33600       30.31200        4.36300
N         33.10700       31.98000        1.38600
C         33.32200       33.00400        0.37100
C         33.68200       34.31000        1.08800
O         33.10400       34.68700        2.14000
C         32.07000       33.11700       -0.53200
C         31.45500       31.87400       -1.15600
C         30.25100       32.20700       -2.04600
C         32.50700       31.05200       -1.91300
N         34.61800       35.00400        0.53900
C         35.06700       36.25500        1.07600
C         34.81600       37.38500        0.09400
O         35.48900       37.65800       -0.90300
C         36.53400       36.16100        1.39200
C         37.14800       37.42800        2.03000
C         38.50700       37.17400        2.55000
O         38.97500       36.04100        2.65200
O         39.13800       38.17000        2.83300
N         33.75600       38.13700        0.45600
C         33.34000       39.30000       -0.35000
C         34.34300       40.43500       -0.28300
O         35.04200       40.61000        0.72000
C         31.95600       39.56000        0.09600
C         31.54600       38.59100        1.12900
C         32.83000       37.93100        1.60700
N         34.43800       41.17500       -1.36500
C         35.29100       42.34200       -1.46800
C         34.60800       43.18500       -2.56700
O         34.26200       42.55800       -3.56100
C         36.72500       42.10400       -1.77500
C         37.56500       43.34500       -1.60000
C         39.02900       43.08400       -1.65800
C         39.88200       44.25000       -1.23600
N         41.31100       44.01600       -1.56200
N         34.34300       44.45900       -2.29300
C         33.63700       45.30800       -3.21800
C         34.39100       45.76100       -4.44200
O         33.78400       45.96900       -5.49200
C         33.22400       46.57100       -2.39000
C         34.10500       46.59500       -1.18100
C         34.69300       45.18600       -1.04500
N         35.66400       46.04900       -4.28600
C         36.62900       46.50900       -5.27400
C         38.02800       46.16800       -4.76500
O         38.26400       45.77900       -3.62300
C         36.46900       47.94600       -5.69400
C         36.78900       48.88200       -4.55300
O         35.87900       49.42000       -3.89400
N         38.05200       49.05800       -4.31900
N         38.95800       46.31500       -5.71600
C         40.39200       46.13400       -5.58900
C         40.90800       44.73800       -5.37900
O         40.73600       44.16400       -4.31000
C         40.90200       47.09000       -4.49900
C         42.28000       47.57300       -4.85000
C         43.17500       47.68900       -3.67800
O         43.03200       47.03300       -2.65900
O         44.07700       48.60400       -3.84500
N         41.61000       44.14400       -6.35600
C         42.03900       44.75400       -7.60600
C         41.18500       45.01400       -8.81200
O         41.73800       45.63000       -9.75200
C         43.24100       43.87000       -8.01300
C         42.87000       42.49000       -7.51100
C         42.13500       42.78600       -6.19700
N         39.95100       44.65800       -8.91000
C         39.08800       44.97200      -10.01600
C         38.38600       46.27100       -9.63300
O         38.21000       46.50100       -8.38800
C         38.06300       43.85300      -10.33100
C         38.59600       42.50200      -10.60300
C         39.72600       42.38200      -11.54600
N         39.43900       42.96200      -12.86800
C         38.99400       42.23700      -13.94800
N         38.76000       40.96400      -14.02900
N         38.87100       43.08100      -15.03800
N         37.88400       46.96600      -10.66300
C         37.14000       48.21000      -10.33100
C         35.86500       47.76200       -9.57400
O         35.34300       48.54200       -8.73100
N         35.17100       46.65500       -9.87600
C         33.99700       46.09000       -9.28700
C         34.23200       44.56400       -9.16400
O         34.60300       44.01100      -10.20700
C         32.72800       46.36900      -10.05700
C         32.36800       47.82700      -10.10200
O         32.06100       48.33000       -8.98600
O         32.51400       48.45100      -11.16500
N         34.07900       44.01200       -7.97900
C         34.24600       42.54000       -7.82200
C         32.84300       41.93800       -7.70900
O         32.01600       42.68700       -7.16000
C         35.12100       42.19900       -6.57600
C         36.55300       42.62600       -6.93000
C         34.99000       40.75600       -6.00500
C         37.44200       42.70800       -5.68500
N         32.67000       40.74500       -8.20500
C         31.32100       40.10900       -8.10100
C         31.19200       39.71100       -6.63900
O         32.21300       39.31900       -6.05300
C         31.03000       38.97600       -9.10500
C         31.19000       39.34100      -10.56600
C         30.55000       40.41200      -11.14500
C         32.02300       38.59300      -11.39500
C         30.73800       40.77400      -12.48100
C         32.26000       38.90700      -12.70800
C         31.58800       39.98700      -13.27800
N         29.98000       39.76500       -6.08900
C         29.64700       39.41100       -4.68600
C         30.41400       40.38100       -3.79000
O         31.27500       39.96200       -3.01300
C         30.01200       37.98500       -4.32100
C         29.68600       36.74400       -5.15900
C         30.20200       35.48500       -4.49000
C         28.20800       36.72200       -5.51800
N         30.15100       41.68100       -3.96200
C         30.90500       42.69900       -3.27200
C         30.71600       42.87300       -1.81800
O         31.54600       43.65500       -1.22100
C         30.52900       43.96100       -4.08400
C         29.11000       43.77900       -4.45000
C         29.15300       42.27900       -4.89800
N         29.70300       42.43500       -1.12900
C         29.56500       42.72200        0.29900
C         29.05900       41.48100        0.98200
O         28.75100       40.54600        0.28200
C         28.55500       43.92500        0.55600
O         27.27700       43.21600        0.30300
C         28.64000       45.21200       -0.20900
N         28.91400       41.42900        2.28000
C         28.32100       40.21900        2.91700
C         26.95400       39.82400        2.33000
O         26.69600       38.58300        2.19500
C         28.25500       40.45000        4.46800
C         27.27000       39.50400        5.21100
C         29.66200       40.43000        5.06100
N         26.01900       40.74000        2.06500
C         24.70800       40.40500        1.55900
C         24.68500       39.67200        0.24600
O         23.94400       38.71900        0.00800
N         25.52000       40.10200       -0.71400
C         25.66200       39.52600       -2.05300
C         26.20400       38.11700       -1.90900
O         25.68300       37.19500       -2.57600
C         26.45200       40.34600       -3.01700
C         25.96300       41.74800       -3.15200
N         26.15500       42.71600       -2.23200
C         25.27700       42.33900       -4.17500
C         25.66200       43.88700       -2.65700
N         25.11700       43.67300       -3.84200
N         27.17400       37.88600       -1.07200
C         27.75900       36.60100       -0.72100
C         26.67800       35.66000       -0.20900
O         26.56600       34.53800       -0.74900
N         25.87800       36.02000        0.78500
C         24.80200       35.21500        1.37000
C         23.67800       34.88300        0.41100
O         23.12100       33.79300        0.47800
C         24.17600       35.94800        2.57900
C         24.95600       36.19500        3.86600
C         24.34600       37.28500        4.72200
C         24.99100       34.86600        4.61000
N         23.27700       35.77900       -0.45200
C         22.25500       35.74600       -1.47300
C         22.70900       34.70900       -2.50100
O         21.93400       33.73600       -2.73800
C         22.01300       37.08800       -2.10500
N         23.95000       34.91400       -2.99200
C         24.57400       33.96700       -3.93100
C         24.56100       32.53900       -3.40200
O         24.17900       31.62800       -4.16700
C         26.04600       34.20100       -4.20900
C         26.74300       33.26900       -5.16400
C         26.44900       33.37100       -6.52600
C         27.68100       32.35400       -4.71700
C         27.09400       32.52200       -7.44000
C         28.37800       31.55100       -5.62000
C         28.04000       31.63000       -6.97700
N         24.94300       32.24700       -2.15700
C         24.94000       30.89800       -1.56400
C         23.60700       30.24200       -1.64600
O         23.61900       28.97600       -1.80700
C         25.46100       30.88700       -0.08900
C         26.92800       31.40200       -0.12400
C         25.26200       29.56300        0.69500
C         27.44200       31.76000        1.27300
N         22.47700       30.88400       -1.56200
C         21.14100       30.36400       -1.64000
C         20.73600       29.87200       -2.99100
O         19.69700       29.21600       -3.17900
C         20.18700       31.44600       -1.07500
C         20.30500       31.83400        0.39900
C         20.36400       30.73700        1.42200
O         19.60500       29.78700        1.14800
O         21.02100       30.62400        2.45500
N         21.42600       30.04900       -4.06600
C         21.27700       29.67200       -5.43500
C         22.17100       28.48000       -5.76800
O         22.18300       27.97900       -6.89500
C         21.60000       30.85100       -6.36600
C         20.74000       32.04700       -6.22700
C         19.24800       31.83900       -6.25800
O         18.70000       31.29500       -7.19700
N         18.49400       32.29600       -5.25500
N         22.92900       28.00500       -4.83300
C         23.86000       26.90200       -4.94500
C         23.12200       25.59500       -4.70700
O         22.19300       25.53300       -3.90400
C         24.98900       27.10200       -3.94700
C         26.01600       28.15300       -4.02500
C         27.07700       27.87100       -2.99500
C         26.65000       28.11100       -5.42600
N         23.63400       24.59100       -5.38800
C         23.08100       23.19800       -5.28100
C         23.53100       22.63500       -3.93400
O         22.77700       22.01200       -3.17200
C         23.50500       22.41800       -6.45800
C         23.31900       20.98400       -6.84600
C         24.16000       20.64800       -8.09500
O         24.46800       21.47000       -8.98200
O         24.52000       19.43700       -8.08900
N         24.79800       22.88800       -3.58400
C         25.47000       22.47500       -2.38200
C         25.68800       23.58900       -1.39200
O         26.69100       23.60200       -0.67100
C         26.87900       21.84400       -2.69700
C         26.66600       20.72000       -3.66300
N         25.81200       19.68000       -3.39500
C         27.15100       20.53800       -4.91000
C         25.82900       18.89700       -4.44300
N         26.61900       19.37100       -5.37000
N         24.75400       24.47800       -1.19600
C         24.74700       25.60100       -0.28000
C         24.93100       25.33200        1.17600
O         25.48000       26.11600        1.98600
N         24.57700       24.14100        1.65200
C         24.60500       23.53400        2.95900
C         26.00400       23.55300        3.55600
O         26.11500       23.71600        4.77800
C         23.97300       22.14200        3.00200
C         24.63400       21.04500        2.19700
O         24.64600       21.24500        0.96500
O         25.15400       20.00400        2.65700
N         27.00000       23.35200        2.71100
C         28.39700       23.41600        3.11300
C         29.07000       24.72700        2.69800
O         30.31000       24.77800        2.86000
C         29.19900       22.13900        2.68800
C         29.34600       21.96800        1.15400
C         28.54900       20.85400        3.28400
C         30.61500       21.11300        0.84500
N         28.38100       25.73500        2.17800
C         28.99600       27.01900        1.76600
C         28.47900       28.12900        2.69200
O         27.28800       28.20900        3.04200
C         28.78400       27.34900        0.28900
C         29.49800       28.63900       -0.10900
C         29.19700       26.24800       -0.66200
N         29.41200       28.91800        3.17900
C         29.09400       29.99300        4.12500
C         29.98100       31.18500        3.84700
O         30.45700       31.26300        2.69600
N         30.16900       32.07700        4.77300
C         30.99400       33.25500        4.50100
C         32.24700       33.40900        5.33600
O         32.38100       32.82100        6.43900
C         29.99600       34.39300        4.74400
C         29.04200       34.97800        3.75600
C         29.35700       36.48500        3.69000
C         29.19400       34.51600        2.33000
N         33.14900       34.27100        4.86600
C         34.40700       34.67700        5.46300
C         34.54400       36.22000        5.30000
O         35.34500       36.68900        4.51200
C         35.63100       33.95700        4.88800
C         36.91200       34.36100        5.63200
O         36.99100       34.10300        6.82300
N         37.95400       34.97900        5.12500
N         33.72600       36.96100        6.06200
C         33.72900       38.41700        5.99700
C         35.04800       39.02100        6.46800
O         35.73300       38.40100        7.30000
C         32.55200       38.87200        6.86500
C         31.76000       37.63500        7.22300
C         32.75400       36.49500        7.06000
N         35.41900       40.19200        5.97400
C         36.62200       40.85100        6.36300
C         36.28000       42.30000        6.66400
O         35.71800       43.01300        5.81200
C         37.71300       40.87000        5.29600
C         39.00700       41.55800        5.61500
C         40.20100       41.08800        4.84400
O         40.45600       39.89900        4.69100
O         40.85300       42.05500        4.38900
N         36.58400       42.74900        7.88000
C         36.35800       44.08000        8.42000
C         36.54200       45.24400        7.44100
O         35.65700       46.07200        7.21500
C         37.29400       44.42400        9.69600
O         37.17400       43.31100       10.58900
C         36.92800       45.75300       10.33800
N         37.70900       45.38700        6.84500
C         38.21000       46.32300        5.89500
C         37.39800       46.28300        4.59900
O         37.11100       47.34900        3.98300
N         37.04300       45.06500        4.20100
C         36.23100       44.87400        3.00000
C         34.85400       45.44800        3.14100
O         34.49900       46.25100        2.23800
C         36.14900       43.45800        2.57300
C         37.49800       42.89200        2.18300
N         37.31400       41.53300        1.74100
C         38.77900       43.20000        2.14700
C         38.51800       41.11200        1.46400
N         39.37600       42.04300        1.72700
N         34.06300       45.22400        4.15100
C         32.74400       45.90800        4.23500
C         32.88500       47.39200        4.48100
O         32.03800       48.17100        3.98100
C         31.78900       45.31900        5.24200
C         31.79200       43.78300        5.17500
C         31.04600       43.27700        3.94800
O         29.91300       43.66300        3.79700
O         31.73600       42.51500        3.26100
N         33.93100       47.87200        5.13200
C         34.18400       49.28400        5.37000
C         34.58000       50.04400        4.15200
O         34.36500       51.31500        4.13200
C         35.07800       49.47200        6.57900
C         34.46500       48.94100        7.85300
C         35.37100       49.06400        9.06500
O         34.92100       48.81200       10.19700
N         36.63600       49.40900        8.92400
N         35.03100       49.47400        3.05200
C         35.36500       49.96700        1.74200
C         34.07200       50.34100        1.01700
O         34.16800       51.16900        0.08900
C         36.15400       49.02200        0.83900
C         37.57400       48.89900        1.30800
S         38.41400       47.51500        0.45600
C         38.76400       48.30600       -1.12100
N         32.89900       49.84700        1.38200
C         31.61400       50.23100        0.83600
C         30.90600       51.15000        1.84900
O         29.72900       51.52100        1.73100
C         30.69900       49.05100        0.52500
N         31.55600       51.48600        2.96600
C         31.07900       52.28400        4.08500
C         30.00700       51.57100        4.88500
O         29.13800       52.19200        5.52100
N         29.98900       50.24000        4.89200
C         28.94600       49.47900        5.56800
C         29.37700       49.23400        7.01800
O         30.56800       49.39400        7.30200
C         28.67000       48.26000        4.72400
C         28.11200       48.24100        3.31700
C         27.83600       46.79300        2.81900
C         26.82100       49.06700        3.23100
N         28.38800       48.86600        7.83700
C         28.65600       48.61100        9.27200
C         29.05700       47.14200        9.38700
O         28.19700       46.20200        9.18900
C         27.42400       48.95600       10.11500
C         27.68800       48.91900       11.60500
O         28.03100       47.84700       12.15800
N         27.51700       50.01300       12.30300
N         30.30600       46.90000        9.74400
C         30.80900       45.51900        9.86500
C         30.07500       44.71500       10.87100
O         29.84500       43.50600       10.53200
C         32.34900       45.52200       10.09600
C         32.95400       44.13800       10.00000
C         32.89300       43.42000        8.81500
C         33.53900       43.52500       11.12200
C         33.37100       42.10300        8.79000
C         34.09000       42.27400       11.04700
C         34.03600       41.56700        9.86300
N         29.65900       45.21600       12.02600
C         28.88100       44.51200       13.06800
C         27.49100       44.17900       12.59100
O         26.98300       43.02400       12.89600
C         28.80500       45.31700       14.42300
O         30.13500       45.83900       14.65300
C         28.35000       44.43700       15.58400
N         26.89100       45.09400       11.83500
C         25.54500       44.74400       11.22600
C         25.63200       43.59700       10.22100
O         24.80700       42.66000       10.15500
C         25.00700       46.03000       10.53300
C         24.49800       47.04600       11.51500
N         23.36200       47.77700       11.26200
C         24.89800       47.40300       12.75100
C         23.12000       48.56300       12.30400
N         24.04800       48.32600       13.20000
N         26.68000       43.71500        9.35200
C         27.02500       42.76700        8.31200
C         27.30900       41.42700        8.89800
O         26.64500       40.43700        8.53300
N         28.20200       41.26700        9.86100
C         28.41700       39.90000       10.49100
C         27.23800       39.36100       11.27700
O         26.98100       38.12500       11.30500
C         29.82400       39.84000       11.19000
C         30.00000       40.79000       12.36800
C         30.88800       39.97900       10.05800
C         31.07100       40.45100       13.41800
N         26.40500       40.17700       11.92100
C         25.17700       39.90400       12.62000
C         24.22700       39.18900       11.66800
O         23.67800       38.09400       12.04300
C         24.47600       41.16400       13.14600
N         24.04800       39.70700       10.45400
C         23.21800       39.08200        9.39300
C         23.75600       37.72000        8.98400
O         22.93600       36.74800        8.84700
C         22.95800       39.89200        8.11000
C         21.75900       39.35900        7.33000
C         21.35100       40.17500        6.13300
O         21.57000       41.36800        5.98400
N         20.69600       39.51600        5.17200
N         25.07000       37.60500        8.84600
C         25.67500       36.27500        8.50800
C         25.43100       35.31500        9.65700
O         24.98600       34.18800        9.48300
C         27.13500       36.44900        8.12200
N         25.66900       35.70900       10.91100
C         25.48500       34.97100       12.15900
C         24.02300       34.51500       12.28300
O         23.58700       33.37000       12.45900
C         26.02700       35.75600       13.35400
C         27.00900       35.20200       14.34300
C         26.82100       35.79900       15.74600
C         26.91300       33.69100       14.52500
N         23.12500       35.47300       12.06700
C         21.67600       35.25200       12.07200
C         21.35300       34.20000       11.02500
O         20.47900       33.39200       11.31700
C         20.90000       36.54000       11.82400
C         19.44300       36.48600       11.75800
C         18.58900       36.35400       12.82200
C         18.59300       36.52500       10.60300
N         17.28200       36.31400       12.42500
C         17.25000       36.41700       11.05500
C         18.83000       36.65300        9.23700
C         16.16200       36.45900       10.18100
C         17.75200       36.69600        8.39400
C         16.42000       36.58000        8.85500
N         21.94400       34.15100        9.84500
C         21.68000       33.16400        8.81600
C         22.34700       31.84600        9.05500
O         22.11400       30.86000        8.33000
C         22.16200       33.80800        7.49200
N         23.25800       31.69500        9.97500
C         24.07000       30.56200       10.36900
C         25.13400       30.35500        9.28700
O         25.51200       29.24400        8.89400
C         23.27700       29.27100       10.51600
C         22.64600       28.81700       11.83500
C         22.09300       27.40300       11.73700
O         21.02500       26.95300       11.24300
O         22.89900       26.55400       12.24800
N         25.64000       31.48200        8.76800
C         26.59000       31.40500        7.66100
C         27.90500       32.05300        7.96400
O         28.71900       32.11300        7.01600
C         25.92800       31.90600        6.37100
C         24.83200       31.10300        5.72100
C         25.29800       29.81000        5.08400
C         24.16400       29.12700        4.35400
N         24.59200       27.75200        3.92000
N         28.19400       32.45700        9.17800
C         29.49800       33.04100        9.55100
C         30.42300       31.87300        9.87100
O         30.48000       31.45200       11.03600
C         29.26600       34.00400       10.73600
C         30.53600       34.73300       11.18000
C         31.12200       35.55400       10.06000
C         30.31800       35.66600       12.37900
N         31.14300       31.29800        8.94300
C         31.99700       30.14100        9.09800
C         33.43400       30.39300        9.49100
O         34.12200       29.44800        9.95900
C         32.04400       29.36500        7.79700
C         30.86000       28.59300        7.33700
C         29.58800       28.72800        7.87500
C         31.06100       27.72200        6.27800
C         28.51500       27.97400        7.42700
C         30.00600       26.95700        5.79600
C         28.71800       27.08500        6.35900
N         33.86000       31.61800        9.26100
C         35.24700       32.02000        9.53700
C         35.18600       33.50700        9.46600
O         34.17100       34.02500        8.97000
C         36.16000       31.49100        8.38600
C         37.60400       31.53500        8.70900
N         38.46500       32.54900        8.40700
C         38.35900       30.63300        9.39000
C         39.65900       32.27300        8.82800
N         39.62400       31.13000        9.46800
N         36.27700       34.19000        9.85100
C         36.31700       35.68900        9.74800
C         37.74000       36.16300        9.50600
O         38.69900       35.49600        9.94300
C         35.68100       36.27700       11.08100
C         35.24000       37.74000       10.90300
C         36.66200       36.13400       12.30300
C         34.36200       38.29100       12.04400
N         37.88200       37.31900        8.86900
C         39.13400       38.01800        8.59000
C         39.08200       39.39900        9.28600
O         38.32200       40.25200        8.87000
C         39.46200       38.25300        7.12400
C         40.06300       37.09100        6.38700
O         40.10200       35.95400        6.85400
O         40.51700       37.34400        5.25000
N         39.89900       39.55600       10.31500
C         39.97900       40.75600       11.14500
C         41.14100       41.64700       10.79200
O         42.24000       41.11700       10.64200
C         39.98100       40.30300       12.62600
C         38.70800       39.66800       13.17400
C         38.98400       39.13900       14.58800
C         37.55000       40.64500       13.21400
N         40.88600       42.94300       10.70000
C         41.90300       43.95900       10.37200
C         41.22500       45.32500       10.59500
O         40.08700       45.34800       11.10000
C         42.36400       43.79300        8.95200
C         41.36400       43.92200        7.84000
O         40.27300       44.48600        8.02000
N         41.64000       43.45200        6.62100
N         41.88900       46.35400       10.12500
C         41.43700       47.72200       10.26400
C         41.58600       48.46100        8.93100
O         42.41500       48.15700        8.08600
N         40.74700       49.46100        8.85000
C         40.61800       50.32800        7.68700
C         40.20000       51.69600        8.20000
O         39.28900       51.70300        9.05800
C         39.55100       49.62300        6.79900
C         39.14300       50.30100        5.53200
C         40.26200       50.34400        4.50900
O         41.09400       49.43200        4.47000
N         40.36700       51.34500        3.65200
N         40.80400       52.75200        7.72900
C         40.38300       54.08000        8.17700
C         39.61400       54.61600        6.99900
O         40.32600       55.27600        6.21800
C         41.58800       54.87800        8.61100
C         42.35600       54.39800        9.82700
C         43.35000       55.36300       10.38800
N         42.94200       56.64700       10.83300
C         43.72400       57.68700       11.09600
N         45.06200       57.68700       11.00200
N         43.15300       58.84500       11.49300
N         38.36900       54.44600        6.67100
C         37.78400       55.05500        5.50600
C         37.66400       54.27100        4.24000
O         38.20500       53.17600        4.00300
N         36.85800       54.87700        3.33300
C         36.58300       54.37700        1.96300
C         37.78600       54.81700        1.13000
O         37.97700       56.02400        0.85200
C         35.24200       54.87900        1.34900
C         34.08500       54.48700        2.33000
C         34.99800       54.31400       -0.06600
C         32.75300       55.22000        1.92300
N         38.59700       53.82200        0.82100
C         39.85600       54.08400        0.05200
C         40.42000       52.71400       -0.20700
O         39.63500       51.75300        0.05500
C         40.79400       54.95300        0.86300
C         41.29800       54.41900        2.21000
C         42.26000       55.39500        2.83000
C         41.61200       56.42400        3.74700
N         42.62100       57.07500        4.58300
N         41.63300       52.55600       -0.64700
C         42.23700       51.21500       -0.92700
C         42.23500       50.32000        0.27200
O         42.16200       50.88800        1.39600
C         43.65800       51.55200       -1.46600
C         44.58700       52.13300       -0.41400
C         44.64200       53.50400       -0.09000
C         45.40800       51.28800        0.31300
C         45.47200       53.99300        0.90100
C         46.24800       51.77800        1.32800
C         46.27700       53.13100        1.61000
O         47.11400       53.62000        2.60500
N         42.34700       48.94600        0.18600
C         42.37500       48.29400        1.52000
C         43.76400       48.44000        2.15300
O         44.83400       48.15600        1.59700
C         41.77300       46.97200        1.63700
C         42.31400       45.86200        0.79900
O         42.64800       46.09600       -0.35000
O         42.29400       44.71700        1.38800
N         43.66400       48.97300        3.38500
C         44.85400       49.24500        4.19600
C         45.35000       48.01300        4.92400
O         46.58000       47.80400        5.08000
C         44.63100       50.37300        5.19700
C         43.99000       51.60000        4.60200
C         44.08700       52.77500        5.48100
O         43.21500       52.94300        6.30700
N         45.09300       53.63700        5.36700
N         44.43800       47.19900        5.41100
C         44.77300       45.98100        6.17300
C         45.56900       46.34500        7.40800
O         46.61600       45.76900        7.63600
C         45.47400       45.01600        5.23600
C         44.56000       44.35900        4.23100
O         43.35800       44.58100        4.15200
O         45.11500       43.58600        3.44200
N         45.13600       47.30200        8.21500
C         45.86900       47.71300        9.40600
C         45.64200       46.63000       10.44200
O         44.81100       45.78100       10.19100
C         45.35100       49.10100        9.82000
C         45.32200       50.23300        8.82500
C         44.71800       51.51200        9.41400
C         46.75500       50.52300        8.40000
N         46.31700       46.73400       11.56200
C         46.07100       45.78200       12.66300
C         44.60700       45.93400       13.09400
O         44.12600       47.10400       13.09200
C         47.01200       46.28800       13.80500
C         46.63000       45.80900       15.19800
C         48.42600       45.88000       13.37900
N         43.98400       44.87400       13.53900
C         42.61700       44.99100       14.07000
C         42.62100       46.02800       15.17800
O         43.44600       45.83300       16.07400
C         42.23600       43.62900       14.68200
C         40.83400       43.64800       15.23000
C         39.74700       43.84200       14.35600
C         40.61500       43.44800       16.58200
C         38.45100       43.87900       14.83900
C         39.32900       43.48000       17.12500
C         38.24200       43.68200       16.23500
N         41.80300       47.04700       15.18800
C         41.77300       48.05300       16.28000
C         42.36800       49.36900       15.88700
O         42.05400       50.44700       16.49600
N         43.19800       49.33900       14.81100
C         43.89000       50.51100       14.29100
C         43.16300       51.30300       13.22200
O         43.69900       52.32100       12.77000
C         45.34400       50.23100       13.87800
C         46.30200       49.81600       14.96800
N         47.67400       49.85700       14.81600
C         46.11900       49.31400       16.20900
C         48.25100       49.38900       15.89100
N         47.31300       49.04600       16.73800
N         41.97400       50.90300       12.88600
C         40.96200       51.42500       12.03900
C         39.87200       52.10000       12.90900
O         40.18000       52.92300       13.80600
N         38.62700       51.81100       12.62300
C         37.43800       52.28300       13.33700
C         37.34100       51.50700       14.67500
O         36.79600       50.35900       14.74700
C         36.22300       52.00100       12.45400
C         34.90800       52.50200       12.95000
O         34.80600       52.91300       14.14500
O         33.84600       52.52300       12.28800
N         37.83500       52.14500       15.73300
C         37.88100       51.57200       17.07900
C         36.55700       51.32000       17.72000
O         36.30300       50.18000       18.20600
C         38.79100       52.48200       17.91800
C         39.15200       51.97800       19.32600
C         39.83700       50.62600       19.32300
C         40.02300       53.10800       19.85000
N         35.64700       52.26200       17.69600
C         34.30000       51.97800       18.27700
C         33.65000       50.81300       17.59300
O         33.00200       49.90200       18.24000
C         33.42700       53.28300       18.32400
O         34.27500       54.30100       18.96600
C         32.12600       53.16200       19.08400
N         33.75500       50.65400       16.25000
C         33.22900       49.51600       15.51400
C         33.83600       48.18300       15.91000
O         33.17700       47.12700       15.99300
C         33.42600       49.67100       14.01500
O         32.58100       48.78700       13.34300
N         35.12600       48.14700       16.12200
C         36.03000       47.06600       16.54400
C         35.52700       46.63400       17.92900
O         35.25500       45.42400       18.03800
C         37.48400       47.47900       16.56600
N         35.36100       47.60000       18.85000
C         34.74000       47.24400       20.14100
C         33.44200       46.45800       19.98700
O         33.31900       45.31800       20.57400
C         34.52100       48.49600       20.97000
C         33.80400       48.32900       22.27900
C         34.46600       47.75000       23.38500
C         32.49700       48.82200       22.42700
C         33.82100       47.67100       24.59600
C         31.83800       48.72300       23.65100
C         32.50600       48.11600       24.72600
N         32.45200       46.89300       19.24200
C         31.16700       46.16800       19.05600
C         31.27400       44.89400       18.25800
O         30.40600       44.01400       18.46800
C         30.08900       47.10400       18.54400
C         29.56600       48.08600       19.54900
C         28.60900       47.70100       20.50800
C         30.01300       49.39100       19.52700
C         28.12200       48.63200       21.40600
C         29.55900       50.35000       20.43400
C         28.59900       49.94900       21.35200
N         32.26600       44.70900       17.40400
C         32.53800       43.48700       16.63600
C         32.94200       42.42800       17.70400
O         32.42000       41.29500       17.74800
C         33.67100       43.66800       15.55500
O         33.25700       44.58100       14.48900
C         34.19000       42.39400       14.89600
N         33.91500       42.86600       18.57000
C         34.39300       42.02600       19.67400
C         33.23600       41.67400       20.62400
O         33.11400       40.48500       20.91700
C         35.62600       42.53400       20.37400
C         36.02100       41.57000       21.50500
C         36.74100       42.82700       19.36800
N         32.37300       42.58300       21.01600
C         31.18200       42.26200       21.79100
C         30.35300       41.23900       21.03000
O         29.87800       40.22500       21.64600
C         30.47500       43.56200       22.17000
C         29.11300       43.34700       22.76400
O         29.07600       42.89200       23.92400
O         28.10400       43.58800       22.10800
N         30.08100       41.32100       19.72300
C         29.32400       40.29800       19.03000
C         30.06500       38.97900       18.97500
O         29.34700       37.93900       19.06800
C         28.93900       40.78500       17.61900
C         27.83800       40.03300       16.87800
C         27.25400       40.87100       15.75300
C         28.41700       38.84400       16.14400
N         31.36800       38.88900       18.77500
C         32.07500       37.58900       18.65600
C         32.15000       36.84400       19.98400
O         31.77800       35.67700       20.00500
C         33.40200       37.71100       17.95800
C         33.36300       38.26100       16.53600
C         34.84500       38.48900       16.19700
C         32.67100       37.41300       15.51500
N         32.55800       37.59700       20.99000
C         32.66300       37.13700       22.35400
C         31.34300       36.94800       23.05500
O         31.03300       35.77000       23.44800
C         33.64300       38.04300       23.17000
C         35.11000       38.10300       22.59000
C         35.65500       36.71500       22.31900
O         35.64900       35.89800       23.24500
O         36.01800       36.32000       21.19300
N         30.50800       37.93900       23.20800
C         29.24400       37.92600       23.91100
C         28.03000       37.54300       23.11300
O         27.00700       37.14100       23.82000
C         29.02500       39.27000       24.61700
C         30.20200       39.75400       25.43100
O         30.92400       38.87700       25.91200
N         30.45400       41.03800       25.65800
N         28.01600       37.62500       21.79700
C         26.76200       37.20800       21.10000
C         25.69500       38.29100       21.19300
O         25.99600       39.50200       21.18200
N         24.42500       37.83200       21.25000
C         23.30300       38.78400       21.25900
C         22.67300       38.96800       22.60800
O         22.46900       37.96000       23.30500
C         22.31000       38.39300       20.17500
C         22.81200       38.35300       18.77100
C         22.98900       39.52700       18.03100
C         23.11900       37.13600       18.15500
C         23.43400       39.48600       16.70500
C         23.58900       37.06700       16.86500
C         23.75300       38.26500       16.13300
N         22.27600       40.21600       22.95300
C         21.63700       40.51800       24.25100
C         20.47600       39.66800       24.71500
O         20.30600       39.40500       25.93100
C         21.23200       41.99900       24.13700
C         22.29500       42.57100       23.19500
C         22.47200       41.43700       22.16000
N         19.58400       39.20600       23.89100
C         18.41300       38.42100       24.08000
C         18.74700       36.97000       23.74500
O         17.78900       36.20500       23.80500
C         17.21000       38.89800       23.25500
C         16.78200       40.31400       23.52800
O         16.20400       40.61300       24.60300
N         16.99200       41.32400       22.67400
N         19.94100       36.58700       23.41800
C         20.25500       35.21500       23.10500
C         20.10200       35.02400       21.60700
O         19.43500       35.80200       20.91300
N         20.80100       33.99600       21.14500
C         20.79100       33.62900       19.73400
C         22.10500       32.88200       19.46400
O         22.72200       32.36900       20.37300
N         22.44500       32.86200       18.17100
C         23.62900       32.15900       17.68900
C         24.89300       32.78100       18.17100
O         24.90100       33.91800       18.64500
C         23.43700       32.10200       16.19600
C         22.35800       33.02400       15.80300
C         21.64900       33.44800       17.06000
N         26.02200       32.10000       18.14800
C         27.34200       32.50100       18.59100
C         28.33700       31.98700       17.56000
O         28.12100       31.00700       16.88600
C         27.71400       32.00100       20.00200
C         27.14900       32.91300       21.07400
C         27.40600       32.63800       22.51900
C         28.75400       33.15500       22.90000
N         28.90000       33.53300       24.31200
N         29.40100       32.66700       17.36200
C         30.48600       32.38000       16.45300
C         31.56100       31.75900       17.36500
O         32.10600       32.42500       18.25900
C         30.99300       33.68100       15.72700
C         32.23800       33.35900       14.94500
C         32.12900       32.59500       13.76800
C         33.47400       33.73300       15.40400
C         33.24200       32.22200       13.02900
C         34.61500       33.39000       14.66500
C         34.49000       32.63100       13.48900
O         35.66000       32.30600       12.84300
N         31.82800       30.54100       17.03900
C         32.80700       29.73600       17.81200
C         34.11000       29.50000       17.10600
O         34.99100       28.86600       17.78600
C         31.87200       28.50900       18.20800
O         31.65100       28.75200       19.66200
C         32.23500       27.13200       17.83700
N         34.29900       30.00300       15.87400
C         35.50200       29.75900       15.12300
C         36.72300       30.45600       15.54100
O         36.71100       31.17400       16.54100
N         37.80500       30.34300       14.77900
C         39.05300       31.05500       15.07700
C         38.88200       32.54000       14.74600
O         38.06700       33.03900       13.94800
C         40.09700       30.37600       14.20500
C         39.34700       29.76600       13.07000
C         37.92300       29.53100       13.56200
N         39.67300       33.34300       15.43600
C         39.79800       34.77800       15.38100
C         41.06800       34.98600       14.56000
O         42.20200       35.07800       15.05700
C         39.90600       35.43600       16.75400
C         38.58600       35.39300       17.48000
C         38.06100       34.09400       18.00700
N         37.08400       34.35900       19.06100
C         35.85700       33.84500       19.07800
N         35.37500       33.02900       18.14100
N         35.01400       34.15900       20.07900
N         40.80600       35.04900       13.26700
C         41.78900       35.18300       12.18700
C         42.00500       36.60000       11.78900
O         41.14000       37.40800       11.47100
C         41.37700       34.26500       11.00000
C         42.30500       34.24400        9.84000
N         41.96300       34.81500        8.63300
C         43.56800       33.79300        9.66500
C         42.99700       34.72800        7.80300
N         43.96700       34.10000        8.40400
N         43.29300       36.90300       11.82400
C         43.82700       38.22200       11.48600
C         44.30200       38.26300       10.02600
O         45.27300       37.57200        9.62300
C         44.89500       38.61100       12.53800
C         44.27100       38.81600       13.89500
C         43.48000       39.92800       14.20000
C         44.45800       37.83900       14.88900
C         42.88600       40.04500       15.47200
C         43.90300       37.95300       16.13700
C         43.10200       39.07200       16.44800
N         43.66100       39.04200        9.18400
C         44.04400       39.21600        7.78000
C         44.51000       40.70700        7.63400
O         43.67600       41.53900        7.29600
C         42.99900       38.85300        6.78500
C         43.54200       38.96500        5.35500
O         44.68700       39.30600        5.04200
O         42.75100       38.65400        4.44200
N         45.75600       40.96600        7.85600
C         46.30200       42.31900        7.84800
C         47.69400       42.35800        7.24000
O         48.22200       41.28100        6.92800
C         46.34300       42.74300        9.36200
C         47.63200       42.34400       10.09400
C         47.92800       41.00200       10.41700
C         48.56600       43.34000       10.41800
C         49.11200       40.63400       11.05500
C         49.73200       43.00300       11.05900
C         50.00500       41.65100       11.36200
O         51.24600       41.44200       11.97600
N         48.33900       43.50400        7.14300
C         49.67800       43.56800        6.61600
C         50.46500       44.58700        7.44700
O         49.90300       45.67200        7.60700
C         49.67100       44.18900        5.25000
C         49.27500       43.42300        4.02900
C         49.08300       44.54200        2.94900
C         48.87000       43.92800        1.60400
N         47.97300       42.68700        1.79800
N         51.64700       44.22800        7.91700
C         52.53400       45.07700        8.68600
C         52.96500       46.20000        7.77800
O         53.43300       45.91000        6.67200
C         53.68400       44.15000        9.08600
C         53.13200       42.74200        9.00400
C         52.26900       42.89800        7.75800
N         52.81400       47.41800        8.18000
C         53.14600       48.62700        7.40900
C         54.54900       48.52300        6.89000
O         55.50000       48.24200        7.66800
C         52.90500       49.84700        8.25700
O         51.58100       50.15400        8.46600
N         54.76500       48.89600        5.63800
C         56.03000       48.84000        4.90500
C         57.14000       49.73800        5.41800
O         58.34600       49.51500        5.09200
C         55.83600       49.01500        3.41100
C         55.65800       50.37800        2.81500
C         55.14600       50.35400        1.43100
N         56.13800       50.06000        0.38000
C         57.06400       50.94400        0.00400
N         57.08600       52.13000        0.59900
N         57.99400       50.75500       -0.96200
N         56.85200       50.74000        6.22500
C         57.75500       51.67200        6.86100
C         58.57900       51.02300        7.97100
O         59.70300       51.42100        8.28000
C         56.92800       52.94100        7.36200
O         56.02200       52.46900        8.40800
C         56.09600       53.56600        6.26000
N         58.11400       49.96900        8.61300
C         58.68500       49.23000        9.69700
C         59.49000       48.01000        9.29000
O         59.07800       47.30100        8.34100
C         57.48100       48.80500       10.61700
C         56.90300       49.95000       11.39900
O         56.91800       51.17100       11.10900
O         56.32200       49.72500       12.46800
N         60.55200       47.72500       10.05700
C         61.41300       46.52600        9.82900
C         60.78700       45.31200       10.42900
O         59.62700       45.39100       10.87700
N         61.38100       44.14000       10.57900
C         60.83200       42.93700       11.16900
C         60.44800       43.06100       12.61300
O         59.53500       42.36100       13.07400
C         61.73000       41.67200       10.96300
C         61.29100       41.01400        9.66900
C         60.19300       40.18300        9.65600
C         61.94200       41.31800        8.46000
C         59.73800       39.56800        8.48800
C         61.48900       40.70500        7.28800
C         60.39900       39.83400        7.32000
O         59.96000       39.27900        6.18200
N         61.04600       43.95400       13.39700
C         60.64900       44.19200       14.81600
C         59.21600       44.67500       14.77500
O         58.41500       44.05900       15.47700
C         61.69600       45.09000       15.44200
C         62.85200       44.24400       15.97000
O         62.79300       43.00100       16.10300
O         63.85800       44.91100       16.26300
N         58.83000       45.61700       13.94500
C         57.45900       46.05700       13.72100
C         56.54700       44.96500       13.22200
O         55.35900       44.97700       13.59500
N         56.94400       43.98400       12.47100
C         56.18200       42.84300       11.99500
C         55.76500       42.02400       13.21000
O         54.57000       41.69100       13.33500
C         56.97900       41.99100       10.96800
C         56.45000       40.60500       10.71700
C         57.17200       42.74600        9.68500
N         56.66300       41.68500       14.11600
C         56.33800       40.89800       15.33100
C         55.54100       41.75900       16.26700
O         54.55900       41.34600       16.91700
C         57.60500       40.16200       15.78900
C         58.22300       39.35800       14.69200
C         59.47600       39.51100       14.16600
C         57.59800       38.29200       13.93900
N         59.65600       38.61900       13.14100
C         58.53600       37.85200       12.98800
C         56.34500       37.68300       13.97500
C         58.26100       36.83900       12.09800
C         56.06400       36.65200       13.08900
C         56.99600       36.21700       12.15000
N         55.77800       43.02100       16.38700
C         55.03100       44.00400       17.17200
C         53.57600       43.99800       16.72200
O         52.66000       43.84100       17.55400
C         55.61300       45.41600       17.07600
C         56.78900       45.70000       18.01600
O         56.94100       44.84500       18.95000
O         57.59300       46.66400       17.92400
N         53.34000       44.10600       15.41600
C         52.04700       44.11800       14.74100
C         51.28500       42.87200       14.96800
O         50.08700       42.92800       15.25700
C         52.17200       44.48000       13.26100
O         52.66500       43.42100       12.52800
N         51.85500       41.69500       14.89200
C         51.24800       40.37500       15.16000
C         50.73900       40.38400       16.59100
O         49.59100       40.09300       16.86600
C         52.21600       39.28200       14.81300
N         51.54600       40.81800       17.55600
C         51.32900       40.99800       18.97600
C         50.18400       41.97700       19.23200
O         49.21000       41.72700       19.99400
C         52.56200       41.47100       19.77600
C         53.40400       40.24200       20.18300
C         54.61700       40.68100       21.00100
C         55.79500       41.12800       20.15100
N         56.48400       42.36000       20.68600
N         50.25000       43.08700       18.53700
C         49.28800       44.18600       18.58600
C         47.92200       43.69500       18.21600
O         46.91500       44.05700       18.84200
C         49.90200       45.28400       17.74900
N         47.68100       42.79900       17.26400
C         46.40100       42.30300       16.87400
C         45.71400       41.58600       18.02300
O         44.47400       41.67400       18.25400
C         46.58700       41.40500       15.64600
C         46.68700       42.12700       14.32000
O         45.61500       42.50500       13.80700
N         47.84300       42.28800       13.74100
N         46.49500       40.75700       18.72300
C         46.07200       39.91100       19.86400
C         45.80300       40.74000       21.08900
O         44.80300       40.64100       21.82600
C         47.15600       38.86100       19.97800
C         47.13800       37.89800       18.80200
S         48.18300       36.45100       19.21500
C         49.83900       37.10500       18.94900
N         46.65300       41.72200       21.39100
C         46.46200       42.63900       22.51700
C         45.20000       43.44800       22.31400
O         44.34900       43.52700       23.19900
C         47.62900       43.60200       22.57100
O         48.76600       42.80600       22.75100
N         45.04300       44.04300       21.12600
C         43.90200       44.85100       20.73100
C         42.64100       44.04400       20.96100
O         41.75000       44.57800       21.64100
C         43.94900       45.44300       19.32300
C         44.80100       46.59400       19.06700
S         44.53100       48.05000       20.12300
C         42.75900       48.11000       20.34700
N         42.58300       42.81500       20.43500
C         41.45200       41.92700       20.65000
C         41.17800       41.67400       22.12200
O         39.98000       41.74500       22.52400
C         41.58700       40.61300       19.88100
C         40.29500       39.87100       19.73200
C         39.73300       39.15300       20.77700
C         39.60400       39.85200       18.51900
C         38.52900       38.42600       20.62800
C         38.41700       39.13900       18.34500
C         37.86300       38.43600       19.41100
O         36.66800       37.80800       19.24500
N         42.14500       41.33200       22.95900
C         42.00900       41.06800       24.41000
C         41.64700       42.34200       25.21200
O         40.81600       42.18100       26.17400
C         43.22800       40.32800       24.94600
C         43.61400       38.98000       24.33200
C         45.03800       38.65000       24.77200
C         42.63000       37.87300       24.67200
N         42.14500       43.52300       24.85700
C         41.77500       44.73900       25.53700
C         40.32500       45.10700       25.30000
O         39.66000       45.54200       26.23600
C         42.70200       45.88500       25.15500
C         44.17400       45.72500       25.48500
C         45.00900       46.88100       24.94300
C         44.29500       45.61500       27.02100
N         39.82400       44.92400       24.07300
C         38.44800       45.18500       23.66600
C         37.53500       44.18300       24.30600
O         36.46000       44.57400       24.73400
C         38.30200       45.19000       22.12500
C         38.98300       46.33100       21.41200
C         39.00900       46.26300       19.88600
C         38.27500       47.63300       21.81400
N         37.93700       42.95300       24.35400
C         37.22500       41.82300       24.96700
C         36.80800       42.00600       26.43900
O         35.65600       41.72600       26.89200
C         38.12200       40.58100       24.84800
C         37.16900       39.42300       25.00400
C         37.87200       38.10300       24.91800
C         37.97800       37.43300       26.28000
N         37.37500       36.10600       26.08000
N         37.72000       42.48400       27.22100
C         37.76800       42.91100       28.58900
C         36.79900       44.06600       28.86500
O         35.85700       43.95200       29.72500
C         39.18100       43.42100       28.78300
C         39.82000       42.90100       30.05300
C         41.00400       43.84600       30.28400
O         40.90600       45.06400       30.24300
O         42.04900       43.17300       30.48500
N         36.94000       45.12200       28.07200
C         36.05800       46.28700       28.11000
C         34.66500       45.87000       27.76500
O         33.71600       46.19700       28.51300
C         36.64900       47.35600       27.19700
C         37.84600       47.91200       27.94900
C         38.90300       48.44600       27.11600
N         39.79900       49.29600       28.00900
C         40.82800       48.69600       28.62300
N         41.09900       47.39100       28.46900
N         41.61500       49.44100       29.38600
N         34.43200       45.04500       26.73900
C         33.16300       44.53500       26.32800
C         32.54200       43.62600       27.36800
O         31.29000       43.61800       27.49500
C         33.22600       43.79000       24.99200
N         33.32500       42.82600       28.10000
C         32.75900       41.95700       29.16400
C         32.32400       42.86400       30.33700
O         31.20500       42.67400       30.87500
C         33.68700       40.85500       29.61700
C         33.89000       39.67100       28.69900
C         35.24700       39.02200       29.06100
C         32.76900       38.65500       28.81700
N         33.15400       43.83300       30.67800
C         32.82900       44.75600       31.76300
C         31.67000       45.67500       31.44200
O         30.90100       46.01100       32.34600
C         34.05700       45.50300       32.14500
N         31.48000       46.05300       30.21100
C         30.43000       46.86800       29.65300
C         29.07000       46.19300       29.81200
O         28.09300       46.82600       30.25100
C         30.69500       47.22000       28.16900
C         29.52400       47.73100       27.37600
C         28.79300       48.83900       27.81200
C         29.17100       47.10000       26.17900
C         27.71100       49.29200       27.07000
C         28.10900       47.55200       25.42200
C         27.38200       48.64100       25.88100
N         29.01700       44.96500       29.40200
C         27.78300       44.20200       29.47600
C         27.40700       43.77700       30.87200
O         26.21500       43.63700       31.21500
C         27.84400       42.95800       28.56400
C         27.73300       43.10500       27.09700
C         26.63000       44.01500       26.66000
N         26.64900       44.20200       25.23900
C         25.87600       44.97500       24.51100
N         24.90200       45.70400       25.04200
N         26.11600       44.97400       23.21200
N         28.35700       43.53200       31.73800
C         28.20300       43.09300       33.12000
C         27.72400       44.22400       34.01700
O         27.13800       43.99100       35.07900
C         29.51700       42.49800       33.59100
N         27.94900       45.45600       33.64600
C         27.57300       46.65300       34.34100
C         26.06800       46.82600       34.43400
O         25.37300       47.02600       33.45000
C         28.20100       47.81800       33.65100
C         28.05800       49.10600       34.40600
O         27.32900       49.25800       35.37300
O         28.69200       50.09200       34.00800
N         25.59400       46.83500       35.70500
C         24.19400       47.01300       36.08000
C         23.62300       48.31100       35.56200
O         22.45800       48.27800       35.08900
C         24.17500       46.92600       37.62000
C         25.37800       46.08600       37.94400
C         26.41900       46.64000       36.93900
N         24.34700       49.38600       35.57000
C         23.97800       50.67800       35.01900
C         23.71200       50.50900       33.50200
O         22.74700       51.15400       33.03400
C         25.05500       51.64600       35.22300
C         25.19200       52.82200       36.14600
C         24.42800       54.06400       35.72700
O         23.19300       53.72200       35.63700
O         24.89300       55.20500       35.51800
N         24.51700       49.74900       32.74100
C         24.41000       49.45800       31.34200
C         23.17700       48.59600       31.08000
O         22.39300       48.90400       30.16500
C         25.65900       48.78900       30.72300
C         25.39400       48.10100       29.37800
C         26.82400       49.75000       30.68800
N         23.01100       47.55800       31.85600
C         21.86100       46.65200       31.71800
C         20.52200       47.37300       31.90400
O         19.51800       47.01200       31.21700
C         22.06800       45.42100       32.58100
C         23.31800       44.57700       32.36200
C         23.26700       43.21000       33.08900
O         22.22200       42.80900       33.61800
N         24.36100       42.45400       33.16000
N         20.40400       48.33800       32.75700
C         19.33500       49.27100       33.05600
C         19.19000       50.30800       31.93300
O         18.05300       50.60100       31.49800
C         19.60700       49.97500       34.36000
C         18.47700       50.61100       35.12900
C         18.93200       51.99900       35.58600
O         19.88200       52.31500       36.33100
O         18.19200       52.88100       35.04200
N         20.24900       50.86700       31.35500
C         20.24000       51.74400       30.20800
C         19.65500       50.93500       29.03300
O         18.69500       51.41500       28.34800
C         21.61300       52.26500       29.93200
N         20.03200       49.68300       28.74800
C         19.53000       48.78300       27.75100
C         18.05000       48.46800       27.81900
O         17.26800       48.18800       26.88000
C         20.28300       47.39200       27.76700
C         21.75000       47.61600       27.45000
S         22.78200       46.12000       27.59200
C         21.87200       45.02900       26.49100
N         17.58100       48.38700       29.04300
C         16.14800       48.07600       29.38900
C         15.42200       49.34800       29.14400
O         14.38200       49.30800       28.43900
C         16.19700       47.36200       30.69800
C         14.94000       46.69500       31.21700
C         14.34000       47.71700       32.18000
C         13.59600       47.01000       33.28100
N         12.61800       46.02800       32.70700
N         15.89900       50.55600       29.50900
C         15.19100       51.81000       29.16200
C         14.97200       51.99700       27.65900
O         13.86500       52.28900       27.14900
C         15.93800       53.06900       29.72900
O         16.08200       52.82100       31.13500
C         15.18500       54.34900       29.36900
N         16.01000       51.81900       26.83700
C         16.10900       51.93300       25.40500
C         15.31200       50.87700       24.61700
O         15.16500       51.06300       23.36100
C         17.54400       51.85000       24.97400
O         18.31900       52.90700       25.52200
N         14.83700       49.81300       25.28000
C         14.08100       48.78500       24.67400
C         14.88800       47.70200       24.02800
O         14.27300       46.88600       23.25100
N         16.16500       47.52200       24.38800
C         16.98100       46.46000       23.75800
C         16.35700       45.10700       23.96600
O         16.24800       44.34100       22.97500
C         18.45600       46.45200       24.07800
C         19.19100       45.36100       23.34100
C         19.01100       47.89600       23.77100
N         15.95600       44.77600       25.16900
C         15.27100       43.50600       25.50600
C         13.87900       43.50200       24.94300
O         13.43400       42.44700       24.46200
C         15.31700       43.27300       27.02600
C         16.69600       43.49800       27.63300
C         17.75200       42.66400       27.23500
C         16.87000       44.45800       28.58800
C         18.99400       42.86500       27.83700
C         18.12600       44.68600       29.16400
C         19.18900       43.87100       28.78700
N         13.14100       44.60200       24.87900
C         11.75900       44.59300       24.29100
C         11.71000       44.29600       22.83400
O         10.71300       43.76600       22.29600
C         11.12700       45.93300       24.54500
C          9.77300       46.29700       24.09100
C          9.19700       47.61100       24.55300
O          9.81000       48.51400       25.12400
O          7.98100       47.56700       24.21000
N         12.78700       44.48700       22.02800
C         12.86800       44.09700       20.62900
C         12.81400       42.58700       20.50500
O         12.38000       42.10800       19.44200
C         14.13900       44.68600       19.95700
C         14.23800       44.60500       18.43700
C         13.11900       45.40700       17.77000
C         15.59600       45.01700       17.95100
N         13.21500       41.81200       21.51300
C         13.19900       40.39600       21.59100
C         11.80500       39.82400       21.69000
O         11.69400       38.63100       21.41500
N         10.78600       40.53300       22.07400
C          9.41400       40.06700       22.17200
C          8.76600       39.99400       20.80900
O          9.05200       40.90500       20.01400
C          8.61500       41.06400       23.01300
C          9.19600       41.26100       24.42400
C          8.52900       42.29800       25.28500
O          7.33200       42.53500       24.95400
O          9.12200       42.83800       26.22300
N          7.94500       39.02700       20.52600
C          7.29900       38.97200       19.22200
C          6.30800       40.11600       19.19300
O          5.70200       40.47000       20.23400
C          6.65500       37.52700       18.96800
O          5.68200       37.55200       20.00100
C          7.61600       36.33600       19.01300
N          6.07500       40.71000       18.02800
C          5.12200       41.78400       17.83400
C          3.70200       41.21300       18.01500
O          2.79100       41.90600       18.54500
C          5.24100       42.39500       16.34600
O          6.61800       42.70000       16.22000
C          4.27300       43.53500       16.00800
N          3.45700       40.03900       17.47600
C          2.18200       39.38700       17.51600
C          2.12300       38.53000       18.79800
O          3.19200       38.00600       19.15100
C          2.02400       38.49500       16.28400
C          1.88300       39.08100       14.90400
C          1.98300       38.00300       13.81700
C          0.56400       39.85100       14.73800
N          0.95800       38.40500       19.37600
C          0.68800       37.55600       20.54100
C          0.60700       36.10700       20.06700
O          0.14000       35.90400       18.91800
C         -0.66200       37.97400       21.13500
C         -0.57300       39.35900       21.68600
O          0.40100       39.59800       22.41800
N         -1.45300       40.29300       21.41500
N          0.99900       35.18100       20.93300
C          0.92900       33.70800       20.59300
C         -0.46500       33.45600       20.05400
O         -1.40400       33.96900       20.69700
C          1.20700       32.83400       21.78000
N         -0.59700       32.86300       18.88800
C         -1.85900       32.65600       18.22600
C         -2.48200       33.86500       17.60700
O         -3.55200       33.69500       16.97100
N         -2.03000       35.09700       17.67400
C         -2.73600       36.21600       17.00500
C         -2.45000       36.05900       15.51700
O         -1.36400       35.56000       15.11600
C         -2.28200       37.52900       17.56800
C         -2.87800       38.80900       17.03700
C         -2.45900       40.06500       17.70900
O         -1.32400       39.97300       18.21600
O         -3.13300       41.08900       17.76100
N         -3.38800       36.44500       14.68400
C         -3.23300       36.35700       13.21900
C         -3.24800       37.77900       12.69400
O         -3.66200       38.71100       13.39300
C         -4.36800       35.57600       12.60900
O         -5.54600       36.35400       12.47800
N         -2.90000       37.93900       11.44300
C         -2.90300       39.26600       10.76300
C         -4.28800       39.86400       10.95800
O         -4.35400       40.98000       11.53700
C         -2.41200       39.19000        9.33200
N         -5.37500       39.19000       10.60000
C         -6.73800       39.69300       10.82800
C         -6.92100       40.14200       12.27500
O         -7.28200       41.34300       12.52900
C         -7.71600       38.64700       10.40000
N         -6.63100       39.29400       13.24700
C         -6.70000       39.62400       14.68300
C         -6.12700       40.99300       14.97700
O         -6.87300       41.91700       15.41900
C         -6.05900       38.49500       15.50100
C         -6.69700       37.14500       15.32600
O         -7.77500       37.12400       14.67200
O         -6.20700       36.09100       15.79100
N         -4.84100       41.20200       14.68400
C         -4.18200       42.48800       14.87500
C         -4.85100       43.58700       14.06800
O         -4.95800       44.71800       14.59600
C         -2.69900       42.32500       14.51800
C         -1.95300       43.62000       14.19000
C         -1.43200       44.22100       15.47200
C         -0.86300       43.30900       13.19700
N         -5.26200       43.31500       12.81300
C         -5.89900       44.32200       11.97500
C         -7.07800       44.97900       12.72300
O         -7.08400       46.22300       12.85900
C         -6.45600       43.87900       10.63200
C         -5.44100       43.37300        9.69300
S         -6.00300       43.53900        8.02800
C         -6.23500       45.28700        7.70800
N         -7.98200       44.10400       13.15000
C         -9.19100       44.48600       13.85000
C         -9.10700       44.64900       15.35600
O        -10.16000       44.70000       16.04700
C        -10.31900       43.59400       13.30800
C        -10.32800       42.13100       13.69400
O        -10.55200       41.21100       12.82900
N        -10.11700       41.85100       15.00600
N         -7.95700       44.73900       15.94400
C         -7.68000       45.04300       17.33900
C         -7.61300       46.58700       17.33800
O         -6.59400       47.22200       17.03400
C         -6.46600       44.33900       17.89100
C         -5.79500       44.89000       19.10800
O         -6.41300       45.61200       19.89800
O         -4.61800       44.71900       19.44200
N         -8.67300       47.25800       17.74200
C         -8.79300       48.69700       17.83700
C         -7.64300       49.32500       18.59100
O         -7.18600       50.32700       18.07800
C        -10.06100       49.24600       18.49200
O        -10.03900       50.68700       18.27400
N         -7.16500       48.86300       19.68500
C         -6.08500       49.33100       20.50200
C         -4.74500       49.38200       19.79400
O         -3.95300       50.29500       20.13400
C         -5.99100       48.44400       21.73100
N         -4.43800       48.51900       18.84300
C         -3.18900       48.51800       18.12300
C         -3.19700       49.40600       16.90400
O         -2.08400       49.56600       16.34000
C         -2.83300       47.10900       17.64000
O         -2.73000       46.37600       18.82500
N         -4.34100       49.91900       16.51100
C         -4.40900       50.76800       15.31100
C         -5.41400       51.88800       15.42000
O         -5.03500       53.02900       15.71600
C         -4.61800       49.86400       14.06500
C         -4.51000       50.62700       12.79600
C         -3.29000       51.25300       12.46700
C         -5.59100       50.80400       11.96300
C         -3.15200       52.00600       11.31600
C         -5.49000       51.53300       10.79800
C         -4.25800       52.14900       10.48000
N         -6.69900       51.54200       15.23700
C         -7.80300       52.48700       15.27400
C         -7.80000       53.28200       16.53900
O         -7.93200       54.51800       16.34200
C         -9.15600       51.89200       15.03900
N         -7.65800       52.76700       17.74500
C         -7.61300       53.66000       18.89800
C         -6.22900       53.89100       19.43700
O         -6.15000       54.26500       20.63400
N         -5.16500       53.73000       18.68700
C         -3.77900       53.84900       19.15700
C         -3.36500       55.26300       19.34300
O         -3.58600       55.98500       18.37900
C         -2.85600       53.08400       18.18100
C         -1.39900       53.03700       18.55400
C         -1.00200       52.27200       19.64500
C         -0.41300       53.75000       17.87100
C          0.31300       52.17700       20.04600
C          0.91000       53.67000       18.25800
C          1.26500       52.88200       19.34400
N         -2.77900       55.67400       20.45200
C         -2.37000       57.09000       20.50500
C         -0.93000       57.12800       20.01000
O          0.07400       57.00800       20.74500
C         -2.60400       57.81600       21.81700
C         -2.26900       59.28300       21.77500
O         -1.95800       59.83400       20.68700
O         -2.23900       60.06000       22.75400
N         -0.80500       57.45200       18.73500
C          0.46600       57.57800       17.99000
C          1.27400       58.71200       18.54000
O          2.50200       58.69700       18.74300
C          0.16600       57.64400       16.50200
N          0.60000       59.80200       18.89100
C          1.19900       61.02000       19.46500
C          1.64400       60.68700       20.86800
O          2.73400       61.21800       21.20800
C          0.31400       62.23000       19.30700
C         -0.74200       62.10300       18.15000
C         -0.29600       62.60900       16.80700
O          0.37100       63.70200       16.93800
O         -0.58800       62.02800       15.74900
N          0.96800       59.85100       21.65100
C          1.51600       59.51400       22.98500
C          2.73700       58.59800       22.83200
O          3.82000       58.89100       23.43500
C          0.50900       58.91300       23.95600
N          2.63500       57.57200       22.00600
C          3.74300       56.62900       21.74700
C          5.01000       57.33300       21.29600
O          6.15000       57.02400       21.79100
C          3.19700       55.46800       20.90100
N          5.03000       58.39000       20.47200
C          6.16300       59.14600       20.04200
C          6.93600       59.95300       21.04400
O          8.00400       60.63200       20.70800
C          5.67300       60.20100       18.97100
N          6.53400       60.02000       22.30200
C          7.21800       60.88100       23.31800
C          8.31000       60.15300       24.03600
O          9.12000       60.70200       24.76800
C          6.17800       61.32600       24.34800
C          5.28900       62.50500       23.94300
C          6.08400       63.80200       23.80000
O          6.89400       64.26600       24.61000
O          5.88600       64.43900       22.73700
N          8.34700       58.85800       23.85300
C          9.24000       57.89200       24.39400
C         10.65900       58.33400       24.14700
O         11.04200       58.51800       22.99400
C          9.12500       56.46100       23.81500
C          9.99700       55.47900       24.60700
C          9.80000       54.04800       24.14100
N         10.75200       53.20700       24.86900
C         10.60400       51.88900       25.07900
N          9.54800       51.24200       24.63000
N         11.57700       51.26400       25.77200
N         11.32500       58.47500       25.23400
C         12.73800       58.87200       25.17800
C         13.44100       57.54200       25.00600
O         13.55700       56.82700       26.03200
C         13.14400       59.67000       26.39200
C         14.62700       59.87300       26.43500
O         15.23200       59.87200       25.35500
N         15.29700       60.10200       27.57100
N         13.99600       57.21100       23.81900
C         14.70400       55.90200       23.66800
C         16.05200       55.98300       24.34000
O         16.68200       54.94500       24.63700
C         14.76900       55.33200       22.28600
C         13.50000       54.85900       21.65500
C         12.74900       55.76300       20.94000
C         13.04200       53.54700       21.82100
C         11.55500       55.39200       20.36600
C         11.82700       53.12500       21.27100
C         11.10900       54.09300       20.51800
N         16.61200       57.18700       24.57500
C         17.85400       57.37000       25.30400
C         18.99700       56.56700       24.73700
O         19.80700       56.01100       25.49300
C         17.59000       56.91600       26.79900
N         19.14800       56.56800       23.44300
C         20.16700       55.91600       22.61100
C         21.48400       56.64600       22.78000
O         22.51200       55.96100       22.80800
C         19.62500       55.77300       21.21500
C         18.57100       54.73100       20.93000
C         18.56100       53.46900       21.57000
C         17.59300       55.01900       19.96400
C         17.62100       52.49600       21.21700
C         16.62700       54.05300       19.66700
C         16.62000       52.79900       20.23800
N         21.48300       57.93400       22.97100
C         22.67700       58.75000       23.15200
C         23.32500       58.33900       24.45600
O         24.45100       57.80800       24.43700
C         22.37700       60.29700       22.98900
C         21.58500       60.57100       21.67000
C         23.66500       61.12400       23.09100
C         20.93200       61.97200       21.72000
N         22.61300       58.42800       25.56300
C         23.08800       58.00000       26.88200
C         23.66800       56.58700       26.87300
O         24.81300       56.40600       27.37300
C         22.01400       58.14900       27.99200
C         22.60800       58.04600       29.36500
C         21.66800       58.09400       30.53100
N         22.48100       57.71600       31.68700
C         22.46800       56.59000       32.42400
N         21.55900       55.64500       32.22600
N         23.42000       56.54400       33.38700
N         22.98600       55.58600       26.29400
C         23.39000       54.24400       26.13200
C         24.72100       54.17700       25.34500
O         25.49600       53.31000       25.75200
C         22.37600       53.32800       25.43700
C         22.70400       51.82700       25.37400
C         22.97300       51.19800       26.73300
C         21.53100       51.04100       24.75200
N         24.93800       55.00300       24.33400
C         26.15100       55.07400       23.55400
C         27.31600       55.63900       24.37000
O         28.46700       55.17900       24.31300
C         25.95700       55.89700       22.23900
C         27.09500       55.48900       21.29400
O         27.22300       54.24100       21.10200
N         27.87000       56.38100       20.75400
N         27.10000       56.63000       25.18100
C         28.06100       57.25200       26.07300
C         28.58000       56.24500       27.10400
O         29.75900       56.21900       27.52200
C         27.42800       58.49400       26.71200
C         28.31900       59.37400       27.52600
C         29.57600       59.82700       26.90000
O         30.61700       60.03000       27.52400
N         29.62800       60.05400       25.59700
N         27.76500       55.33000       27.59100
C         28.06000       54.29100       28.55000
C         29.02800       53.32600       27.86900
O         30.01800       52.96800       28.53900
C         26.74700       53.79200       29.10700
C         25.94600       54.63500       30.09500
C         24.72200       53.86200       30.59400
C         26.77100       54.92100       31.31300
N         28.76200       52.96700       26.59600
C         29.67000       52.07400       25.86800
C         31.00800       52.73500       25.66100
O         32.08000       52.17400       26.02200
C         29.01500       51.47700       24.64500
N         31.10500       53.98700       25.19200
C         32.39500       54.64200       25.01300
C         33.14500       54.77600       26.31800
O         34.39600       54.65100       26.39700
C         32.35400       56.00900       24.25400
C         31.35900       56.09000       23.09000
C         33.78700       56.24100       23.71700
C         31.39500       54.93600       22.06600
N         32.45800       55.08600       27.41200
C         33.09500       55.21200       28.74600
C         33.64200       53.85000       29.12800
O         34.77700       53.86900       29.65000
C         32.15400       55.86800       29.68200
C         31.97300       57.40700       29.44300
C         30.92300       57.90500       30.41300
O         30.48600       57.28700       31.36600
O         30.50800       59.02800       30.16800
N         33.03700       52.70200       28.89800
C         33.58700       51.38600       29.13500
C         34.74000       51.14800       28.17900
O         35.83300       50.74000       28.59900
C         32.58200       50.27200       28.97600
C         31.87300       50.10700       30.29900
N         32.31100       49.30400       31.30000
C         30.73500       50.66200       30.73300
C         31.47800       49.37200       32.32500
N         30.52100       50.19300       31.99600
N         34.64400       51.50400       26.90100
C         35.71200       51.37800       25.92900
C         36.94300       52.15500       26.33200
O         38.08400       51.67700       26.14900
C         35.15900       51.74300       24.53000
C         36.15300       51.90000       23.38600
C         36.93600       50.57500       23.20600
C         35.44600       52.27600       22.09000
N         36.84100       53.35400       26.88000
C         37.83100       54.27700       27.34700
C         38.44300       53.91600       28.68200
O         39.40100       54.57100       29.16200
C         37.28800       55.71400       27.39900
C         37.03000       56.56300       26.19800
C         37.32700       58.05400       26.45500
C         37.86300       56.21900       24.96700
N         38.05000       52.87100       29.32400
C         38.45800       52.25800       30.54900
C         38.14900       53.23700       31.68900
O         38.97600       53.40500       32.57300
N         36.95500       53.80900       31.63800
C         36.60700       54.80000       32.64000
C         35.47400       54.33300       33.50400
O         35.31300       55.01000       34.52400
C         36.51100       56.12900       31.98100
O         35.28000       56.68400       31.75500
N         34.77300       53.27800       33.22600
C         33.70100       52.87700       34.15000
C         34.18900       51.68400       34.97500
O         34.60800       50.63100       34.38200
C         32.38000       52.57500       33.44600
C         31.80500       53.83900       32.92000
C         30.39700       53.78000       32.47900
N         29.90300       55.13700       32.77500
C         29.05700       55.47500       33.74000
N         28.51800       54.50000       34.46900
N         28.76000       56.77000       33.81900
C         26.07000       73.01400        9.04800
C         27.21600       73.82600        9.67400
C         26.63600       75.13400       10.16900
C         27.52500       76.14500       10.84000
C         26.80200       77.40600       11.23500
O         26.60700       71.93000        8.27100
O         27.73900       72.96300       10.64400
O         25.60400       74.84300       11.14600
O         28.12600       75.50600       11.96800
O         26.08500       78.01000       10.15700
Mg2+      27.57600       70.43100       10.17300
Al        29.19700       74.03000       11.90400
C         42.42800       40.15100        0.28400
C         41.65100       39.09100        1.03900
C         42.33600       37.73600        0.92000
C         41.74900       36.52900        1.56500
C         42.52100       35.26400        1.29000
O         41.77200       41.38100        0.04200
O         41.56500       39.54300        2.37300
O         43.69800       37.76000        1.35400
O         41.56900       36.68500        2.97500
O         42.63200       35.07900       -0.09500
Mg2+      41.75400       42.51000        2.36200
Al        40.91800       38.34700        3.77400
O         37.51700       70.43800       33.69100
O         33.24600       75.24800       29.94900
O         38.98700       73.13500       26.55200
O         32.26900       79.60600       20.54700
O         23.87500       71.16100       14.26600
O         15.42100       69.79900       20.96200
O         14.06300       74.84000       19.41900
O         18.54800       67.37700        9.37000
O         66.26200       50.81100       12.71500
O          8.86900       69.83500       11.60600
O         67.41400       72.17800       13.01200
O          8.81500       71.47400       17.31600
O          9.58500       67.74800       23.59200
O          6.89400       73.67300       19.49600
O         65.87400       66.32900       17.17600
O         28.11100       77.90600       33.56000
O         63.91000       54.22700       13.65400
O         15.60100       82.26900        8.30000
O         18.33900       80.17200       12.07100
O         63.02900       61.87200       16.84200
O         13.20400       82.92600       19.84500
O         14.57200       89.24800       11.94000
O         12.42200       82.29900       11.13900
O         14.91600       89.58400        7.67000
O         27.74300       87.63100       27.88500
O         30.19600       87.83400       25.11300
O         26.58600       80.57800        8.75900
O         27.44100       84.74700        8.60700
O         24.83600       80.89100        6.57000
O         17.14900       82.15600        5.94900
O         24.25000       79.93000        2.04400
O         16.95200       77.80000        1.06400
O         19.27600       82.09800       -3.85400
O         18.88700       74.73800       -2.42300
O         11.57000       76.89400       -6.23300
O         25.55400       79.51500       -5.29800
O         23.22200       76.25200       -8.27900
O         26.69700       83.56600        1.41800
O         27.94900       88.81100       -3.63400
O         26.94700       81.93400      -12.49500
O         14.00800       87.11700       -7.79000
O         26.59400       95.73200      -10.78600
O         18.39800       93.50300       -2.62700
O         13.84500       90.24900       -6.41700
O         20.55700       90.14200       10.29700
O         20.70000       90.63800       13.34700
O         22.49800       97.37900       12.20900
O         58.26700       53.82000       17.94200
O         38.75100       85.21800       16.81800
O         32.15800       80.90700        4.03300
O         31.21800       78.08300        3.65000
O         30.54900       77.92800        0.72500
O         27.65700       70.53400       -9.11000
O         28.85200       74.36600      -11.11600
O         22.49300       73.91500       -9.65500
O         25.43700       67.12300       -7.39300
O         19.91500       72.99700       -8.67800
O         18.87800       72.73000       -4.63100
O         18.19400       66.35500      -11.93500
O         25.93000       68.39600      -14.15200
O         29.81800       76.30400      -16.60700
O         46.19900       57.26700       29.22300
O         24.42500       71.84000      -15.88400
O         27.67800       77.64400      -17.44100
O         22.14800       73.51600      -14.70600
O         32.26800       77.65500      -14.94500
O         33.56900       84.82100      -15.07900
O         33.89100       77.67800       -8.55300
O         35.97200       89.84900       -6.04200
O         59.46000       53.10700       23.89200
O         32.77200       88.30300      -11.72500
O         52.01300       58.91300       31.65900
O         37.46200       92.28600       -2.74500
O         32.99800       97.59400        3.26100
O         32.03700      100.18300        5.38300
O         38.81000       96.10600       13.47800
O         33.28200       95.75900       19.13100
O         34.70100       70.54000        4.68400
O         35.29800       72.06700        7.70000
O         32.02800       68.64300       -3.36300
O         31.24800       66.21000       -2.41700
O         29.91600       63.02700        1.22000
O         26.60100       64.13700        2.31600
O         27.94900       66.50000       -7.55500
O         30.87800       65.79800       -6.06300
O         33.11200       72.65400       -4.97300
O         35.96300       75.96900       -4.40700
O         39.18100       70.26900       -5.65400
O         44.88800       80.94300       -3.69100
O         46.04400       62.37200       32.55900
O         45.48700       80.86700        4.26700
O         45.79800       86.31800        4.88000
O         45.13500       86.25000        9.47000
O         43.59200       87.56800       12.86400
O         26.16400       71.08200       11.81800
O         59.35400       51.93200       19.62600
O         34.85300       59.80900        7.07400
O         39.39600       62.36300       10.51500
O         36.49700       62.61900       14.93800
O         34.24300       59.00400        9.97800
O         34.07300       61.52100       13.85700
O         33.09600       64.23100       -0.85300
O         28.29900       62.59300       30.20900
O         37.97900       60.96500        7.62400
O         43.61500       64.30800        4.67000
O         42.85800       66.92700        5.79900
O         48.22500       68.89200        7.09800
O         48.28800       76.75200        4.39900
O         45.40000       79.93700       14.27900
O         34.32500       62.91600       16.81800
O         29.16000       65.15400       11.37100
O         32.18500       54.58900       13.99700
O         21.70000       60.70800       12.10800
O         22.14100       66.07600        7.32300
O         22.69600       63.64200       15.44500
O         21.66600       63.65500       12.42400
O         30.00700       55.79100       18.58300
O         18.60000       60.38100       28.32500
O         36.99700       59.61400        9.62100
O         38.84100       64.12000       14.36000
O         47.57700       65.09400       17.55400
O         46.59400       73.74500       20.08800
O         25.90400       61.75700       29.16500
O         52.31300       73.69900       19.45100
O         13.20600       60.73900       29.86900
O         18.80200       62.07800       14.29100
O         20.16600       59.79700       25.88100
O         23.45300       63.04900       19.35200
O         21.65500       61.28800       15.21900
O         47.46200       80.50700       16.38000
O         43.53100       80.86600       18.86500
O         10.48200       66.26400       25.64400
O         13.01800       63.33600       27.98500
O         54.44100       71.77100       22.52800
O         50.98600       66.60200       20.42500
O         36.75000       56.73700        8.78200
O         39.00700       58.69200        5.95100
O         47.56800       86.25600       -3.89100
O         35.52200       86.13800      -13.74300
O         22.01100       93.54300       22.50300
O         19.94700       76.86700       12.11500
O         11.66800       75.68400       26.51800
O          6.20600       67.46300       15.03000
O         66.48600       58.17000       16.80400
O         32.45700       68.22400      -12.86400
O         40.54700       65.56800       31.71400
O         76.95600       64.18600       -5.08500
O         45.25900       92.97300       23.65700
O          9.20400       63.67000        4.64700
O         11.98400       66.60200        2.10300
O         27.91000       68.59800       33.21300
O         30.93200       81.80200       31.38500
O         16.54200       88.45800        9.60500
O          9.03500       83.30700       11.43100
O          9.78900       95.20300       23.00500
O          5.79000       88.53300       11.52700
O          8.78900       87.60800       16.04400
O         16.16800       94.89400       24.03700
O         11.48800       85.19700       24.85600
O         23.64400       90.77900       28.63400
O         24.32900       90.62900       26.05700
O         16.09200       79.35500       11.07300
O         38.32400       88.74200       17.62300
O         30.23300       82.16700        2.62600
O         38.84100       93.55300       13.29800
O         40.35400       82.31100       18.11600
O         42.68800       90.67500       -3.82400
O         31.04500       54.43700        7.14400
O         38.94700       57.84100       33.66100
O         50.93600       65.56100       28.29700
O         58.61400       66.56800       23.94800
O         32.30000       88.48100      -15.00200
O         70.93500       79.83500        7.47500
O         74.20300       48.76800        2.25700
O         72.44100       53.14200       -3.18400
O         69.61200       51.87900        9.08900
O         48.66800       47.94100       28.41300
O         19.40500       64.35800        9.93100
O         17.79700       95.55700       11.63200
O         16.42800       99.87100       20.13600
O         50.07600       66.95500       17.14500
O         27.19300       83.09500        6.17000
O         45.85200       67.68100        5.42500
O         28.18500       83.46400        3.82900
O         69.64800       76.89200        4.69000
O          8.33600       96.92400       12.66300
O         61.89900       73.60300       11.55400
O         42.33800       92.02000       21.81200
O         43.56500       82.84800       16.69700
O         19.35600       70.50600       -2.43400
O         73.00200       55.74600        4.46300
O         65.50500       63.31500       17.79700
O         77.92000       66.41000       -7.57000
O         15.13700       73.33700       15.21500
O         65.10400       64.94800       20.94200
O         20.31800       93.57300      -10.11700
O         18.55300       94.21700       -8.42000
O          5.34700       87.61300       22.92000
O         66.81000       71.13700       15.96300
O         55.45300       65.53400       23.14000
O         51.66900       83.65300        9.00900
O         17.94900       58.30600       30.04500
O         19.89900       64.65600        6.90800
O         37.70400       98.47100       -0.15300
O         64.02500       57.96000       24.82800
O         69.47600       61.12400        9.98500
O         53.54500       52.95000       28.85500
O         29.54100       55.69100        4.28200
O         23.38800       73.14300       11.32900
O         16.73600       85.12200       32.72200
O         31.85700       95.57400       -5.40600
O         23.21100       68.49800        9.72700
O         22.07000       66.24100       10.53100
O         14.91600       67.33700       31.14900
O         36.02700       91.15100       -9.33500
O         29.09700       80.44700       32.71000
O         66.32400       56.65700       19.49900
O         69.17600       64.06800       12.45600
O         72.76700       77.35900       -5.10900
O         10.49300       67.79800        6.75900
O         73.02800       56.67400       -3.95700
O         66.88000       48.57100       -1.14600
O          7.52500       86.10200       14.35500
O          4.39200       87.90400       17.98700
O          3.42600       90.17100       15.08800
O         17.37000       74.79800        9.02000
O         33.81600       90.77000       24.36800
O         38.03500       81.80500       24.43600
O         37.66400      102.53400       12.63000
O         47.57700       87.43800        0.58500
O         50.04800       88.22600        3.01600
O         53.26500       78.54100       11.90400
O         45.10500       83.57400       14.43800
O         49.03500       73.55600       18.46300
O         81.89400       67.85100       -4.86600
O         82.19900       66.11800       -1.32300
O         71.31100       51.72200       -6.08600
O         55.44800       47.95000       24.49000
O         20.50600       73.91900       11.33200
O         18.87100       64.95700       31.97600
O          7.62000      105.57500       15.88300
O         29.73100      102.81000        8.38900
O         54.87900       76.21000       13.56100
O          7.45100       82.81900       13.99200
O         37.06000       95.62400       -0.15000
O         66.74000       76.05600       15.10300
O         10.58800       71.82800       26.58700
O          3.16000       94.03900       11.46700
O         19.61800       70.82000       10.21200
O         50.34200       81.10500       18.76000
O         40.29100       56.29800       12.48300
O         40.37000       59.97400       10.62000
O         38.48200       55.14900       15.17300
O         34.62500       56.87500        5.56900
O         40.74200       58.90400        8.18600
O         15.55600       90.88000       37.06000
O         54.15300       47.84800       21.61000
O          5.66200       92.52000       22.34200
O          5.39300       90.05100       24.09900
O         26.56400       88.87400       25.71500
O         51.13900       45.23200       22.82700
O         64.30200       47.80900       15.33800
O         11.41200       97.04800       23.78600
O          5.68000       89.63600       21.51300
O         22.01500       95.45600       16.57600
O         29.12300       67.67600       10.13000
O         44.27300       47.39200       -8.37600
O          7.76200       62.78700       19.22300
O         46.00900       50.33600       -4.23900
O         31.43400       51.47300       11.41800
O         32.94600       56.54100       18.55400
O         35.64000       54.93000       15.93800
O         10.30600       62.96500       22.85700
O         30.23100       53.32200       10.02700
O         38.16400       54.94700       10.65700
O         23.91600       23.82600       13.97700
O          4.14600       63.35600        9.42000
O         38.32400       40.00600       30.35800
O         34.08300       56.27300       11.82600
O         37.98900       47.13000       31.86400
O         20.19000       33.24700      -15.90500
O         39.89100       14.73500        8.77300
O         57.28100       45.26900       -6.77200
O         52.17400       33.24300       -6.90400
O         26.62300       21.20000      -10.54300
O         44.51400       35.13500       27.02600
O         45.90700       31.96300       20.40200
O         39.19500       34.77900       21.12600
O         41.88000       30.25800       10.85900
O         46.79300       40.87900        4.25400
O         57.55700       40.82800        6.13400
O         57.81900       36.53200        2.67500
O         49.36800       45.99000       -0.99300
O          9.77800       58.66300       28.18100
O         51.66500       50.39400        0.97600
O         59.30500       44.06300       -4.68900
O          7.95700       37.11600       23.56200
O         63.68600       48.58200        3.17600
O         61.71700       40.87700       -0.48400
O         64.04800       42.78300        6.17800
O         64.32000       38.13900        0.03100
O         12.56500       54.53700       26.70700
O         50.06000       32.15200       -7.73600
O         50.26800       33.22700       -3.02600
O         14.16400       46.73200       27.07200
O         58.18700       28.27700        0.35500
O         54.71700       31.57500       -6.75200
O         50.53800       25.34400      -11.00200
O         60.77500       22.98400       12.72000
O         48.41500       20.49300       12.70400
O         45.24900       21.75400       11.63100
O         41.34800       33.30700       -1.88000
O         40.16000       28.93700       -2.66000
O         41.80100       33.51600       -4.80900
O         48.21600       32.82500       -9.23700
O         40.14800       35.68800       -8.38800
O         46.57800       38.37200      -12.27600
O         41.80500       35.53000      -16.36400
O         43.31000       42.35800      -13.44900
O         48.03800       41.84300      -20.67300
O         35.61000       38.03800      -13.93600
O         36.57700       42.10900      -16.77000
O         37.56600       32.31600       -9.13000
O         33.76000       28.35100      -13.65900
O         31.33500       37.09400      -19.87900
O         44.03900       32.43300      -23.11500
O         31.54700       24.19900      -23.11700
O         42.43100       24.17700      -19.02000
O         44.46000       28.82200      -23.47300
O         46.86900       24.33400       -6.02100
O         47.87600       23.17300       -3.66300
O         19.46200       54.24600       27.74600
O         34.02800       25.88900        9.19000
O         34.27700       34.05900       -3.45100
O         34.94500       36.60900       -3.49900
O         34.33100       37.64400       -6.14300
O         32.82100       47.55800      -13.84900
O         30.87200       44.26700      -16.01200
O         36.95900       44.60900      -17.65900
O         35.61800       50.50400      -12.57000
O         39.43800       45.58500      -17.79800
O         42.50700       44.77300      -14.48700
O         40.14100       52.90800      -19.49800
O         32.03300       50.94500      -18.31500
O         27.03200       44.43600      -19.46700
O         35.05200       48.81300       30.90700
O         32.35100       48.11000      -21.45000
O         28.39900       43.02500      -22.35100
O         34.64500       46.47500      -21.78400
O         25.50300       41.60000      -18.54800
O         23.59700       34.65900      -19.64100
O         27.39800       39.32500      -12.22800
O         25.56800       27.74900      -12.86500
O         21.09200       53.26000       33.61500
O         25.88400       30.53900      -18.73500
O         31.25600       46.65800       34.93100
O         28.64700       22.41200      -15.29400
O         25.18100       23.97000       -9.65000
O         31.90800       17.93800       -8.38300
O         33.24900       15.01700       -7.56300
O         31.54700       15.81200        3.52600
O         38.68300       15.98600        6.20600
O         32.91200       43.36000        1.12300
O         33.97700       40.99600        3.55600
O         31.67100       47.43700       -6.57700
O         33.12600       49.69700       -5.36900
O         36.16300       51.84900       -1.89600
O         39.41300       50.72100       -2.82400
O         48.66600       42.81200       -1.45300
O         33.42200       50.95200      -11.26700
O         31.73400       51.06300       -8.34200
O         29.81100       43.98800       -8.51300
O         27.29000       40.49000       -7.44700
O         24.49400       45.81000       -5.22100
O         19.45600       34.88300       -3.95000
O         36.37600       42.47200       32.01600
O         22.49200       32.82300        2.93700
O         22.44700       27.66200        2.04900
O         24.86200       25.83800        5.78800
O         27.42800       23.63800        7.81100
O         43.51600       41.23400        3.13500
O         19.22100       55.53800       30.05700
O         34.45400       52.92600        6.09700
O         31.89800       49.21800       10.21400
O         36.63200       48.00700       12.92400
O         36.66500       52.93500        8.49300
O         38.36700       49.44200       10.86800
O         32.51400       51.03000       -2.48300
O         32.12600       51.38000        7.81700
O         25.73400       48.67600        7.14000
O         26.54000       46.00000        6.83000
O         22.16200       43.27900       10.01200
O         20.48500       36.72200        5.78300
O         27.22000       30.90700       11.92700
O         39.24700       47.49500       13.21600
O         41.46400       47.21200        5.48500
O         48.17200       51.51500        3.98600
O         46.00900       48.01100       -1.43900
O         47.27500       47.00700        1.81700
O         48.93700       47.93100        6.60900
O         48.70800       48.72000        3.30700
O         42.14900       52.92200       15.96800
O         44.69500       54.18900       14.48000
O         58.87900       47.90600       16.29600
O         33.97600       52.27800        9.51800
O         34.40500       46.64100       12.98900
O         27.62200       44.15200       19.38600
O         29.40300       35.14700       18.94400
O         52.45500       45.17200       20.37800
O         24.25300       35.28500       21.55900
O         56.46800       48.92100       15.19900
O         52.05600       50.05000        4.21600
O         50.24300       47.16900       10.26400
O         50.05200       50.14200        6.24400
O         25.90700       29.66700       16.91700
O         31.02700       29.24200       14.90000
O         63.41800       45.56100       12.71800
O         64.55700       44.38900        9.44300
O         59.99300       43.03700       17.95100
O         25.52400       41.96600       19.47700
O         36.20200       55.28100       12.77800
O         59.54100       46.95500       19.55700
O         19.63700       25.77500       -3.78300
O         20.70700       30.87400      -14.91700
O         21.73500       29.01000      -16.62300
O         50.31800       16.64700       -0.75800
O         53.05400       35.09200        0.39300
O         47.70800       25.07400       18.62400
O         18.41700       53.95200       32.14900
O         62.40500       37.50100       11.24700
O          5.58300       49.52400       24.50000
O         -7.66200       35.05200       11.70800
O         53.17500       46.26700       -6.87300
O         11.31600       48.66500       27.14500
O         29.91900       48.39600       13.97800
O         37.41100       31.63400       -6.24500
O         41.10300       35.83800       27.33200
O         42.59200       22.25500       19.78100
O         55.48500       42.58800       -1.03600
O         66.08200       31.88100       10.43000
O         61.15200       25.19000      -10.09900
O         62.17100       22.22500       -2.29600
O         58.69200       24.60300        4.05100
O         60.72200       21.92800       10.00000
O         44.61700       15.48500        9.05800
O         39.79800       31.51600       -4.33800
O         22.28000       33.11200      -17.56200
O         27.07000       25.83700      -15.26200
O         29.57000       20.32500      -11.67000
O         33.89100       24.29900       11.32100
O         21.71900       26.58500       -0.71900
O         15.44400       32.57000       -5.04700
O         26.36000       41.20500       23.78300
O         31.96200       33.29400       20.90300
O         30.74300       36.43700       27.27800
O         15.12600       51.43300       32.97000
O          7.05600       45.95200       28.05700
O         -4.24800       38.79300       20.65200
O         -3.64100       35.42700       20.46600
O          0.26300       34.53100       13.34200
O         -5.47800       40.86200       19.03800
O         -1.41600       35.52300       10.46800
O         -5.37400       36.68100        9.58600
O         -8.26800       48.92800       14.62300
O         -0.86300       47.33700       21.44500
O         -4.27800       55.53300       14.34800
O          4.81200       66.69200       22.35500
O         26.08600       50.59300       23.84900
O         28.43000       60.10600       31.21100
O         36.29700       50.68300       32.52800
O         39.23200       49.60200       32.97600
O         49.33700       49.33100        0.60000
O         50.16900       25.78700       -8.05900
O         49.28500       17.81700       -6.70400
O         52.34300       11.27300       -3.14700
O         34.91900       32.79200       -5.46500
O         38.29700       58.13100        2.33100
O         13.34400       43.26600       30.51300
O         23.79500       45.09800        7.62700
O         39.05200       22.79500       21.01300
O         48.43400       20.52500       10.04400
O         -6.05900       58.28800       19.96700
O         34.07200       55.58200        9.06500
O         56.17400       34.14700        3.44800
O         61.39900       34.81200       23.69500
O         61.05400       15.06100        2.28400
O         47.80100       16.91300       -1.87600
O         20.98300       28.88700        7.07500
O         64.26100       14.53800       -6.50000
O         55.26300       15.94700        4.76700
O         22.64800       24.97900      -10.30400
O         40.63100        9.83300        0.30900
O         51.80400       34.52400       25.40200
O         41.50300       13.81100        5.10300
O         15.36900       37.71300       20.23900
O        -12.18900       50.73400       15.17800
O         12.22000       45.05700       28.63600
O         25.33200       59.34700       34.11700
O         25.13800       27.29000      -18.08200
O         40.42600       39.41200       27.83700
O         12.42700       40.65900       26.36800
O         51.36200       28.76300       20.67500
O         52.62100       24.90800       -7.26800
O         44.89200       16.41400       -5.47400
O         49.73800       35.76700       -1.13900
O         16.55400       34.27300       21.86300
O         64.07400       45.06300        0.41700
O         -2.99800       59.49700       17.55000
O          2.61000       64.84900       15.14500
O         25.34400       59.18800       30.58200
O         56.17300       48.69700       -8.11700
O         59.74200       40.03300       -2.37400
O         63.71000       37.69000        6.97400
O         52.42600       31.34200       24.37900
O         63.18100       18.62900       -8.19500
O         42.13600       13.64800       -5.82100
O         15.36300       36.44600       25.78100
O         23.48000       29.87800       20.49300
O         37.92500       36.62100       29.60100
O         28.11500       50.24400       37.75200
O         -2.83400       53.89200       22.83200
O          0.20200       54.67100       23.28000
O          7.24100       64.87900       27.13600
O         50.43800       24.26900       -5.01800
O         46.55100       37.67300       -0.41400
O         38.39100       22.99700       16.49000
O         -5.77600       40.65900      -12.20800
O          3.23500       64.98500       12.33800
O         27.07200       23.63600      -11.50000
O         60.01100       49.30700       18.33700
O         -7.03900       37.83900        7.04400
O          7.87600       61.36600       27.32100
O         23.64100       27.91200       14.93900
O         47.74900       50.25300       -2.13400
O         45.94400       44.54900        0.47400
O         40.77100       44.96600        3.85800
