1653
Lg3Endorepellin
N         -4.30000        6.73500       28.94500
C         -5.36500        7.49800       29.68400
C         -5.66800        8.93400       29.15100
O         -6.68500        9.53800       29.60100
C         -5.01600        7.60800       31.18600
C         -4.98000        6.23500       31.93100
O         -5.89700        6.04100       32.80300
O         -4.02700        5.40100       31.72400
N         -4.81400        9.49900       28.22700
C         -4.97200       10.89800       27.65300
C         -5.03700       10.89800       26.11700
O         -4.19300       10.17800       25.53200
C         -3.76200       11.72500       28.10500
N         -5.98900       11.65300       25.43200
C         -6.03300       11.83200       23.96300
C         -4.67500       12.26200       23.45300
O         -4.07600       13.19600       24.00700
C         -7.02300       13.02700       23.73700
C         -7.90200       12.87000       24.88000
C         -7.18300       12.37100       26.03100
N         -4.20500       11.57700       22.41000
C         -2.94200       11.88000       21.79100
C         -1.70700       11.20800       22.43100
O         -0.64700       11.37200       21.87200
N         -1.80600       10.50100       23.55900
C         -0.61800        9.97800       24.25600
C          0.11100        9.03100       23.30900
O          1.33500        9.03200       23.26000
C         -0.96800        9.23600       25.55200
C          0.20600        8.84100       26.43600
C         -0.22200        8.25100       27.83400
O         -1.44300        8.18400       28.19400
N          0.78300        7.85000       28.62100
N         -0.65100        8.22200       22.56600
C         -0.05100        7.14600       21.69600
C         -0.08200        7.48800       20.22600
O          0.15600        6.60300       19.40000
C         -0.76500        5.81900       21.96500
C         -0.57100        5.40000       23.38500
C          0.67100        4.87600       23.84900
C         -1.59500        5.58400       24.33500
C          0.92200        4.53400       25.15800
C         -1.31600        5.24500       25.66600
C         -0.09000        4.72900       26.05900
O          0.12400        4.36000       27.38300
N         -0.35500        8.73600       19.85800
C         -0.38100        9.16000       18.47300
C          0.39600       10.41200       18.26800
O          0.50500       11.25300       19.19200
N          0.92700       10.60600       17.07000
C          1.63000       11.81600       16.70600
C          1.35000       12.22600       15.29400
O          1.25700       11.34600       14.36700
C          3.19600       11.67400       16.86700
N          1.18000       13.55400       15.14400
C          0.92900       14.19200       13.84400
C          2.22400       14.87300       13.40700
O          2.91000       15.55700       14.16400
C         -0.24300       15.18400       13.97300
C         -0.48300       15.88800       12.64100
C         -0.98800       15.24500       11.56500
C         -0.05500       17.20100       12.47000
C         -1.17200       15.94200       10.36600
C         -0.23700       17.89200       11.24300
C         -0.73500       17.19500       10.23000
O         -0.93000       17.90300        8.99700
N          2.60200       14.61900       12.15000
C          3.80500       15.21800       11.57600
C          3.43300       16.21500       10.51100
O          2.57100       15.90800        9.69400
C          4.65800       14.06200       11.01200
C          4.99500       12.99300       12.06000
C          5.97800       13.20900       12.98800
C          4.24000       11.85800       12.15100
C          6.23500       12.19500       13.96600
C          4.45000       10.90900       13.09500
C          5.43300       11.07600       14.01400
N          4.10900       17.35900       10.47400
C          3.83800       18.36300        9.41900
C          5.14700       19.08800        9.16900
O          6.08500       19.09300        9.99500
C          2.73600       19.35700        9.84800
C          3.06900       20.05800       11.12600
N          3.70600       21.27900       11.17100
C          2.84800       19.68800       12.41500
C          3.90000       21.61700       12.42400
N          3.41000       20.66200       13.21600
N          5.22600       19.76000        8.03400
C          6.45200       20.56900        7.77200
C          7.76100       19.83300        8.02600
O          8.72900       20.41900        8.59300
C          6.36100       21.89000        8.54000
C          5.11400       22.69500        8.12500
O          5.06000       23.03400        6.90900
O          4.20100       22.89900        9.00200
N          7.78400       18.55200        7.60300
C          8.93000       17.66800        7.71200
C          9.33000       17.30400        9.16700
O         10.53800       16.99000        9.46600
C         10.12500       18.28100        6.95700
C          9.79600       18.50300        5.50700
O          9.24400       17.58300        4.86500
O         10.01200       19.64500        5.01800
N          8.35100       17.35300       10.06500
C          8.64700       16.93500       11.40400
C          8.86000       15.44700       11.59200
O          8.74600       14.65600       10.67000
N          9.17500       15.08000       12.83000
C          9.57800       13.74200       13.19800
C          9.63900       13.60300       14.70900
O          9.63900       14.60500       15.43200
C         10.99700       13.44600       12.64200
C         12.10000       14.06500       13.44900
C         12.80900       13.28600       14.36100
C         12.39400       15.45200       13.34400
C         13.82200       13.86300       15.11400
C         13.41700       16.01300       14.14800
C         14.10400       15.20400       15.01900
N          9.63300       12.34200       15.16900
C         10.05900       12.04100       16.54400
C         11.15300       11.02100       16.39000
O         11.17000       10.15700       15.49800
C          8.86300       11.41800       17.26900
C          7.82500       12.43300       17.71600
C          6.59300       11.66000       18.28100
C          8.34500       13.43400       18.77200
N         12.06100       11.00600       17.37600
C         13.06600        9.97000       17.48200
C         13.18200        9.43600       18.89900
O         12.98700       10.21900       19.85300
C         14.50200       10.51000       17.00600
N         13.40400        8.15700       19.00000
C         13.36700        7.43100       20.28200
C         14.68900        6.70700       20.45400
O         15.35900        6.34600       19.49000
C         12.23000        6.38400       20.23400
C         10.90600        7.03200       20.12600
C         10.21700        7.39900       21.29200
C         10.34500        7.26800       18.86100
C          8.96400        8.08400       21.19300
C          9.17900        7.95100       18.76300
C          8.47400        8.36500       19.91400
N         15.07000        6.44200       21.74200
C         16.26200        5.69100       21.90500
C         16.13900        4.30400       21.27500
O         14.99600        3.75800       21.24400
C         16.31400        5.51000       23.46600
C         15.26600        6.08500       24.02400
C         14.35200        6.75700       22.97500
N         17.23900        3.70600       20.80700
C         17.24000        2.44400       20.12700
C         16.60700        1.34200       20.95300
O         16.03100        0.40100       20.40100
N         16.66700        1.48300       22.29700
C         16.11200        0.45600       23.18000
C         14.57600        0.35200       23.16000
O         14.02600       -0.64400       23.69800
C         16.65400        0.56000       24.64100
C         16.24900        1.82900       25.35300
N         14.92600        2.18700       25.59200
C         17.00200        2.79900       25.89700
C         14.91000        3.37200       26.21200
N         16.16800        3.76100       26.37700
N         13.85800        1.28000       22.48700
C         12.45100        1.01900       22.24200
C         12.21900       -0.14300       21.25800
O         11.08500       -0.65400       21.16500
C         11.64900        2.31300       21.80600
C         11.96800        3.45500       22.74000
C         11.92400        2.76000       20.36700
N         13.24600       -0.48500       20.51400
C         13.14800       -1.63500       19.58200
C         14.39100       -2.49200       19.85500
O         15.14600       -2.75600       18.96200
C         13.16600       -1.12700       18.08600
C         12.53000       -2.10000       17.11900
C         12.25800       -3.44300       17.46700
C         12.21000       -1.62300       15.86100
C         11.64300       -4.31500       16.56600
C         11.57100       -2.48200       14.96500
C         11.27000       -3.77900       15.31800
N         14.56700       -2.91700       21.12100
C         15.64800       -3.81000       21.47000
C         15.48200       -5.18900       20.83500
O         14.40200       -5.71300       20.77300
C         15.70900       -4.05800       22.97400
O         15.99200       -2.86900       23.73900
N         16.61300       -5.70900       20.40800
C         16.69600       -7.05700       19.84900
C         17.71200       -7.81300       20.69100
O         18.31600       -7.29500       21.67700
C         17.25600       -6.95200       18.42600
C         16.29300       -6.30900       17.52700
C         16.77300       -6.29300       16.03700
N         15.84700       -5.48800       15.34600
C         15.88700       -4.18100       15.32700
N         16.94400       -3.51600       15.83600
N         14.87900       -3.54000       14.79900
N         17.89800       -9.05200       20.32900
C         18.78800       -9.93100       21.09900
C         19.40800      -10.91900       20.13100
O         20.31400      -10.52500       19.35300
C         18.05900      -10.63000       22.27100
O         16.92200      -11.41600       21.88300
N         18.92400      -12.12900       20.19400
C         19.52800      -13.22100       19.41800
C         19.14400      -13.21700       17.95700
O         18.01400      -12.90200       17.58400
C         19.12100      -14.57100       20.04400
C         19.50800      -14.64800       21.57000
C         18.84800      -15.89100       22.07300
C         21.08500      -14.62800       21.69400
N         20.07100      -13.61700       17.07400
C         19.72300      -13.67800       15.65200
C         18.49900      -14.56300       15.42800
O         18.35800      -15.64000       16.05900
C         20.96400      -14.29200       14.98100
C         22.02100      -14.34700       15.92600
C         21.45600      -13.96700       17.33200
N         17.60900      -14.12200       14.52000
C         16.41900      -14.90800       14.11700
C         15.24500      -14.93000       15.07300
O         14.21900      -15.54700       14.80800
C         16.76800      -16.34100       13.63200
C         17.65400      -16.22300       12.43400
C         17.73400      -17.47600       11.67600
O         17.00600      -17.59000       10.67000
O         18.59600      -18.23600       12.07700
N         15.36000      -14.23900       16.19600
C         14.19700      -13.99900       17.04900
C         13.20400      -13.19500       16.20500
O         13.53200      -12.18400       15.58400
C         14.63900      -13.24900       18.32100
C         13.48500      -12.71700       19.11300
C         15.45400      -14.25800       19.22300
N         11.96900      -13.67700       16.16900
C         10.96200      -13.00900       15.31800
C         10.68300      -11.60600       15.75900
O         10.71000      -11.29200       16.99000
C          9.71800      -13.88700       15.45800
C          9.92700      -14.67000       16.68400
C         11.40800      -14.88500       16.82300
N         10.41300      -10.72300       14.81900
C         10.07400       -9.35300       15.19400
C          8.88900       -8.84200       14.47600
O          8.66700       -9.16500       13.29500
C         11.21000       -8.32500       15.28600
C         11.80700       -7.96100       14.15400
C         13.16800       -7.18000       14.43400
O         13.40600       -6.19600       13.75700
O         14.01200       -7.61200       15.31700
N          8.13900       -8.00100       15.15600
C          6.90600       -7.40000       14.65300
C          6.98100       -5.88900       14.77000
O          7.39300       -5.33800       15.82800
C          5.72600       -7.95100       15.52700
O          5.68300       -9.34500       15.38100
C          4.36600       -7.30600       15.10600
N          6.52000       -5.19900       13.72500
C          6.14400       -3.77100       13.74500
C          4.71500       -3.68900       13.41700
O          4.24000       -4.24800       12.41500
C          6.93100       -2.95900       12.72000
C          8.46400       -3.08200       12.98500
C          6.42200       -1.48100       12.71000
C          9.28300       -2.69100       11.76700
N          3.92700       -3.00100       14.23800
C          2.55900       -2.69700       13.87900
C          2.30500       -1.24000       14.16700
O          2.74500       -0.69100       15.23400
C          1.55100       -3.60400       14.60300
C          0.07200       -3.40600       14.10100
C         -0.79400       -4.57100       14.40100
O         -1.18900       -4.70900       15.54200
O         -1.02900       -5.35900       13.53000
N          1.54900       -0.58600       13.31100
C          1.15100        0.78600       13.57400
C         -0.10800        1.06200       12.81700
O         -0.46500        0.35600       11.84000
C          2.28900        1.81300       13.22200
C          2.77200        1.81600       11.77800
C          1.80900        2.66100       10.92000
C          4.18600        2.34800       11.68300
N         -0.75400        2.14700       13.18300
C         -1.86300        2.77200       12.41400
C         -1.41300        4.09400       11.84000
O         -0.73400        4.85200       12.49400
C         -3.10300        2.88400       13.25100
C         -3.66200        1.44800       13.53900
C         -4.52600        1.41600       14.73700
O         -3.96300        1.27100       15.85600
O         -5.76000        1.37200       14.54400
N         -1.77600        4.34200       10.57900
C         -1.35600        5.51300        9.83400
C         -2.51000        6.13600        9.07700
O         -3.37800        5.42700        8.58200
C         -0.18300        5.20000        8.90900
C         -0.60000        4.08100        7.91000
C          0.35400        6.46000        8.08000
N         -2.51500        7.46600        9.01700
C         -3.46900        8.23200        8.18800
C         -2.66700        9.31600        7.49200
O         -2.03700       10.13700        8.13900
C         -4.60300        8.75600        9.02100
C         -5.68500        9.66500        8.36200
C         -6.51100       10.26900        9.58300
N         -5.78600       11.30900       10.33900
C         -6.28700       11.97800       11.37300
N         -7.51800       11.64300       11.80800
N         -5.60600       12.99100       11.94900
N         -2.65300        9.28000        6.16200
C         -1.85200       10.22800        5.36300
C         -2.34900       10.26800        3.93700
O         -2.78500        9.25500        3.40900
C         -0.34500        9.87600        5.46700
O          0.39900       10.91100        4.85100
C          0.00100        8.58100        4.82900
N         -2.13900       11.40700        3.31000
C         -2.20600       11.47400        1.83800
C         -0.85600       11.51400        1.13400
O         -0.74100       11.56600       -0.11700
C         -3.01500       12.72500        1.36000
O         -4.35900       12.49500        1.76900
N          0.22000       11.48500        1.91800
C          1.56900       11.51000        1.36800
C          1.92200       10.28400        0.53300
O          1.76800        9.16400        1.00000
C          2.59700       11.59600        2.57400
O          2.33200       12.77700        3.29200
C          4.01000       11.59100        2.00600
N          2.35000       10.49700       -0.69900
C          2.69700        9.37700       -1.56800
C          4.04600        8.74600       -1.27900
O          4.16900        7.53800       -1.31500
C          2.66200        9.85900       -3.06500
N          5.02600        9.58000       -0.97800
C          6.34800        9.06300       -0.75300
C          6.91600        9.67800        0.51400
O          6.97500       10.88000        0.69800
C          7.24800        9.32400       -1.98200
O          6.65500        8.58100       -3.10500
N          7.27800        8.79000        1.44600
C          7.93500        9.28900        2.64400
C          8.17500        8.18000        3.64700
O          7.55300        7.09600        3.59900
N          9.05900        8.51100        4.58200
C          9.38800        7.63700        5.65400
C          8.36100        7.56300        6.78600
O          7.89100        8.59100        7.29500
C         10.72100        8.18100        6.26600
C         11.34700        7.28100        7.34800
C         11.85600        5.99500        6.72100
C         12.57300        8.01700        7.92500
N          8.01600        6.34100        7.24200
C          7.24500        6.13400        8.42400
C          8.12900        5.73900        9.59300
O          7.92800        6.22400       10.72200
C          6.17900        4.99200        8.23800
C          5.07700        5.35900        7.28600
C          4.20000        4.08400        6.98000
C          4.12700        6.45000        7.86400
N          9.03700        4.80800        9.42500
C          9.86500        4.29300       10.51100
C         11.20900        3.97000        9.94500
O         11.34000        3.28300        8.93000
C          9.23800        3.02100       11.14800
C         10.10800        2.33400       12.26800
C          9.25700        1.58400       13.35400
C         11.22700        1.33700       11.80900
N         12.29300        4.37200       10.66700
C         13.63500        3.95100       10.32600
C         14.41100        3.57000       11.56000
O         14.41000        4.37200       12.51700
C         14.37200        5.12900        9.68600
C         15.79200        4.77800        9.25200
C         16.92100        4.94000        9.98500
C         16.20000        4.21300        7.99700
N         18.02400        4.50900        9.27100
C         17.60000        4.06200        8.05700
C         15.51400        3.82900        6.81800
C         18.38500        3.53300        6.92100
C         16.25200        3.28500        5.75700
C         17.68900        3.17900        5.83500
N         15.12100        2.45400       11.56400
C         16.15800        2.22800       12.60900
C         17.38000        1.73700       11.86200
O         17.33600        0.65700       11.22000
C         15.74200        1.29700       13.66500
C         16.85100        1.19400       14.77800
C         16.52500        0.20700       15.85300
O         15.89600       -0.80900       15.64600
N         16.96600        0.51100       17.05600
N         18.47800        2.46800       11.98800
C         19.70700        2.05500       11.31100
C         20.83100        1.97900       12.35100
O         20.59300        1.86100       13.53900
N         22.04900        2.02900       11.87700
C         23.21700        1.84900       12.80600
C         23.47000        3.07000       13.63000
O         23.15900        4.17900       13.22500
C         24.49100        1.36600       12.09000
C         24.18300        0.10100       11.34600
C         25.03300        2.38500       11.17000
N         23.96800        2.81300       14.84100
C         24.39200        3.89300       15.72000
C         25.34400        4.78900       14.96300
O         26.22200        4.33500       14.20400
C         25.15000        3.32300       16.88900
C         24.28700        3.00200       18.00800
C         25.04300        2.40900       19.16000
O         25.24400        1.19100       19.12600
O         25.43800        3.13500       20.11400
N         25.17500        6.08300       15.19200
C         26.16100        7.04100       14.73400
C         27.57100        6.59900       15.16300
O         27.82800        6.24600       16.36700
C         25.86400        8.51900       15.20100
C         26.24900        8.77100       16.67600
C         26.62100        9.47800       14.32800
N         28.42300        6.59700       14.17600
C         29.81600        6.31700       14.39100
C         30.16800        4.84000       14.36300
O         31.30400        4.52500       14.46300
N         29.17000        3.94600       14.20900
C         29.44100        2.47600       14.30800
C         29.41600        1.64500       13.00400
O         28.79400        0.61400       12.98800
C         28.43300        1.81000       15.27800
C         28.49100        2.29700       16.73700
C         29.79900        1.96800       17.36300
O         30.24800        0.84100       17.10100
O         30.38000        2.83400       18.05300
N         30.10600        1.98400       11.90800
C         30.18900        0.88200       10.88300
C         31.50300        0.03400       10.89000
O         32.54400        0.62300       10.60500
C         29.92900        1.39400        9.48800
N         31.53800       -1.28900       11.23400
C         30.85100       -1.98400       12.34300
C         29.53500       -2.70900       12.17200
O         29.37100       -3.68200       11.34300
N         28.58400       -2.24600       12.99800
C         27.13500       -2.51400       12.82300
C         26.73400       -2.56900       11.31100
O         25.52600       -2.74400       10.93700
C         26.32200       -1.43400       13.58500
C         25.92500       -1.79400       15.04900
C         25.21800       -0.69000       15.83200
O         24.24800       -0.06300       15.39200
N         25.66500       -0.50400       17.08600
N         27.76000       -2.44400       10.46000
C         27.60600       -2.44000        9.01500
C         26.76100       -1.21900        8.74800
O         26.90800       -0.18300        9.44200
N         25.91600       -1.33800        7.72100
C         24.98000       -0.32700        7.24500
C         23.52600       -0.99500        7.34000
O         22.68000       -0.74000        6.52500
C         25.33800        0.03300        5.80600
C         24.30800        0.83600        4.97400
C         24.43400        0.58900        3.37000
C         24.08700        1.89500        2.57600
N         24.22300        1.80600        1.09700
N         23.33300       -1.85400        8.31600
C         22.07300       -2.58200        8.47500
C         20.95300       -1.58500        8.76200
O         21.16800       -0.55500        9.43100
C         22.15200       -3.59600        9.64600
C         22.96200       -4.83900        9.33100
O         23.63100       -4.92400        8.29000
O         22.91400       -5.71100       10.21800
N         19.70500       -1.92800        8.42400
C         18.59200       -1.09400        8.84500
C         17.29000       -1.89300        8.72700
O         17.23300       -2.88900        8.02200
C         18.50700        0.20000        7.97200
C         18.19900       -0.07800        6.52300
C         16.90000       -0.16800        6.10600
C         19.23100       -0.17500        5.60600
C         16.55500       -0.40800        4.72600
C         18.93800       -0.42000        4.24300
C         17.60800       -0.57000        3.82300
N         16.27900       -1.36800        9.39000
C         14.88600       -1.75700        9.20800
C         14.09800       -0.48400        8.89900
O         14.34900        0.54800        9.52600
C         14.32300       -2.42800       10.55300
C         15.12700       -3.61400       11.08800
C         12.88600       -2.74100       10.41500
C         15.26500       -4.69200       10.12100
N         13.14900       -0.55700        7.99200
C         12.39400        0.62800        7.64100
C         10.97500        0.32000        7.18800
O         10.74000       -0.75500        6.57400
C         13.03300        1.45400        6.59500
O         13.06000        0.78000        5.33300
N         10.05800        1.23500        7.43800
C          8.73000        1.21700        6.86500
C          8.51200        2.56100        6.21600
O          8.92000        3.61300        6.75400
C          7.57800        0.94900        7.85400
C          7.36300       -0.35500        8.42800
C          6.23200       -0.25800        9.48900
C          6.80400       -1.25400        7.30700
N          7.77900        2.60700        5.09000
C          7.48800        3.91400        4.49100
C          6.47000        3.72900        3.39400
O          5.80100        2.70800        3.30500
N          6.24900        4.83500        2.68000
C          5.31700        4.86100        1.54900
C          6.09600        5.16500        0.30500
O          6.95800        6.06000        0.29500
C          4.29100        5.97700        1.78700
C          3.40500        5.66600        2.99900
C          2.59600        6.84000        3.19800
C          2.51200        4.42200        2.93800
N          5.73000        4.44200       -0.76000
C          6.28300        4.59700       -2.12100
C          5.13800        4.63500       -3.09900
O          4.39600        3.64700       -3.20000
C          7.26100        3.45800       -2.45700
C          8.71800        3.76000       -1.91700
C          9.61600        2.50800       -1.49200
O          9.19500        1.34600       -1.77200
N         10.85100        2.73700       -0.86800
N          4.87800        5.84100       -3.64600
C          3.68000        6.02500       -4.50800
C          2.43300        5.57300       -3.79800
O          1.49600        4.97700       -4.41200
C          3.91100        5.24900       -5.83000
C          5.15000        5.73900       -6.51400
O          6.13100        4.97700       -6.62000
O          5.11300        6.93800       -6.92100
N          2.37300        5.81900       -2.50300
C          1.24500        5.51200       -1.72000
C          1.18600        4.10500       -1.13200
O          0.40800        3.83200       -0.24900
N          2.03600        3.21200       -1.65100
C          2.03600        1.81300       -1.21600
C          2.87500        1.69500        0.05000
O          3.92000        2.37300        0.15500
C          2.66500        0.90400       -2.28400
C          1.87300        0.76000       -3.52400
N          1.67200        1.77400       -4.44200
C          1.18300       -0.30700       -3.94800
C          0.88300        1.30200       -5.40500
N          0.61300        0.04100       -5.14500
N          2.47000        0.85900        0.98000
C          3.32600        0.52800        2.09200
C          4.53400       -0.21500        1.59700
O          4.45400       -1.18000        0.83900
C          2.54200       -0.36500        3.06900
C          3.40200       -0.76500        4.32600
C          3.61400        0.49500        5.25000
C          2.74800       -2.00300        4.98000
N          5.70900        0.13100        2.09700
C          6.94200       -0.57100        1.80800
C          7.64800       -0.94400        3.13300
O          7.75400       -0.10000        4.05700
C          7.87400        0.18700        0.84500
C          8.20200        1.57200        1.35100
C          9.11600       -0.58500        0.54100
N          8.06900       -2.19200        3.18500
C          8.89800       -2.69400        4.32400
C         10.25300       -3.07200        3.73400
O         10.29400       -3.89500        2.82200
C          8.18000       -3.89000        4.99300
C          8.93800       -4.59200        6.08600
C          9.67300       -3.89800        7.04800
C          8.82700       -5.98400        6.21400
C         10.30000       -4.53100        8.10000
C          9.49200       -6.64600        7.29000
C         10.17800       -5.94700        8.23100
N         11.32400       -2.44600        4.19600
C         12.64300       -2.62400        3.58700
C         13.67500       -2.85200        4.67100
O         13.69400       -2.11800        5.63300
C         12.97600       -1.36200        2.81000
C         14.16300       -1.25300        1.89300
C         13.74200       -0.12700        0.94000
N         14.86100        0.15100        0.15800
C         14.86800        1.10100       -0.74100
N         13.75100        1.87100       -0.90900
N         16.00000        1.27600       -1.35100
N         14.52400       -3.85200        4.48600
C         15.52900       -4.15600        5.53300
C         16.79500       -4.61800        4.88100
O         16.77900       -5.14900        3.74900
C         15.01800       -5.08300        6.64400
C         14.38800       -6.39300        6.14200
C         15.15400       -7.58700        5.97200
C         13.04200       -6.46800        5.91200
C         14.57000       -8.78000        5.57100
C         12.47300       -7.64900        5.49200
C         13.24300       -8.83300        5.31800
O         12.60700      -10.01600        4.90400
N         17.89200       -4.46400        5.59100
C         19.21700       -4.84400        5.14300
C         19.90200       -5.48100        6.34700
O         20.01800       -4.82100        7.42800
C         20.00600       -3.57200        4.67000
C         21.45900       -3.73700        4.39900
C         21.81500       -4.64400        3.31600
O         22.05100       -5.89300        3.53100
N         21.99500       -4.08500        2.10900
N         20.22700       -6.75600        6.18200
C         20.93000       -7.47700        7.23200
C         22.42200       -7.62700        6.98700
O         23.10800       -8.25300        7.78700
C         20.31600       -8.86800        7.50300
C         18.76400       -8.85600        7.46100
C         18.24800      -10.18900        7.72800
C         18.21400       -7.85500        8.51700
N         22.93800       -7.06200        5.89600
C         24.36700       -7.20700        5.59900
C         24.66700       -7.99200        4.34200
O         25.85100       -8.02200        3.95200
N         23.67900       -8.61600        3.71700
C         23.91400       -9.34200        2.48800
C         22.95100       -8.99700        1.35000
O         22.86200       -9.75600        0.38900
C         24.05300      -10.85600        2.73400
O         22.96700      -11.47600        3.34300
N         22.29400       -7.84300        1.42700
C         21.35500       -7.43200        0.36800
C         20.02200       -7.03600        0.99300
O         19.61600       -7.61100        1.96300
N         19.35400       -6.08900        0.38100
C         18.06300       -5.57700        0.87400
C         16.88800       -6.47800        0.47400
O         16.88500       -7.11700       -0.63500
C         17.76200       -4.23300        0.21100
C         18.75300       -3.21900        0.48800
C         18.24300       -1.79900        0.20200
O         17.07000       -1.56800       -0.17100
O         19.08000       -0.95200        0.33700
N         15.90100       -6.53900        1.35700
C         14.56500       -6.99800        1.02700
C         13.69300       -5.75200        0.87500
O         13.91500       -4.78200        1.59300
C         14.01200       -7.83900        2.17600
N         12.72200       -5.81800       -0.04400
C         11.71700       -4.76700       -0.14700
C         10.36900       -5.41400       -0.43300
O         10.16700       -6.08200       -1.52200
C         12.05900       -3.79400       -1.29600
C         11.07800       -2.63400       -1.29300
C         11.22100       -1.73500       -2.47500
N         12.57300       -1.27000       -2.68900
C         12.84300       -0.25700       -3.51900
N         11.85900        0.41700       -4.08600
N         14.08000        0.07900       -3.76700
N          9.40900       -5.27200        0.49500
C          8.03800       -5.82900        0.35700
C          7.12200       -4.65600        0.16900
O          7.14300       -3.69100        0.94500
C          7.65700       -6.56900        1.64400
C          8.32700       -7.91700        1.88600
C          9.77900       -7.80200        2.11500
C          7.68200       -8.67800        3.04100
N          6.24200       -4.70500       -0.82200
C          5.38200       -3.57600       -1.14300
C          3.93500       -4.00900       -1.17100
O          3.61300       -5.08300       -1.71100
C          5.73900       -3.02300       -2.54300
C          4.87500       -1.82900       -2.85800
C          7.18500       -2.51700       -2.56300
N          3.04100       -3.21800       -0.57700
C          1.63100       -3.57700       -0.59900
C          1.05100       -3.55900       -2.01600
O          1.55600       -2.81300       -2.89600
C          0.80000       -2.63200        0.33500
O          0.82000       -1.29900       -0.16200
N          0.05100       -4.43700       -2.19800
C         -0.62600       -4.43400       -3.49900
C         -1.25800       -3.10100       -3.83200
O         -1.20500       -2.63500       -4.97700
C         -1.73400       -5.48900       -3.43700
C         -2.41400       -5.55200       -4.83100
C         -3.55000       -6.52700       -4.90600
O         -3.89000       -7.26000       -3.90400
O         -4.19800       -6.52300       -6.01200
N         -1.84100       -2.47100       -2.82000
C         -2.65600       -1.23900       -3.05600
C         -2.05300       -0.06300       -2.34600
O         -1.38500       -0.25600       -1.30200
C         -4.12500       -1.46700       -2.61000
C         -4.84700       -2.52700       -3.49000
O         -4.62500       -2.53700       -4.70500
O         -5.66700       -3.33000       -2.89200
N         -2.29500        1.15600       -2.85000
C         -1.89700        2.32700       -2.06700
C         -2.76500        2.52500       -0.85300
O         -3.89500        2.10300       -0.83400
C         -2.04300        3.51200       -3.02200
C         -2.73300        2.99800       -4.20700
C         -2.90300        1.50300       -4.14800
N         -2.17000        3.19400        0.14100
C         -2.87000        3.40700        1.41700
C         -2.93000        4.89400        1.80100
O         -3.35000        5.23600        2.88500
C         -2.31200        2.59100        2.60400
C         -0.86200        2.92800        2.87600
C         -2.49500        1.10100        2.41600
C         -0.32600        2.48500        4.27600
N         -2.45700        5.74400        0.89200
C         -2.40300        7.18300        1.13100
C         -3.67800        7.89700        0.75600
O         -3.63800        8.87200        0.02100
C         -1.20500        7.84200        0.43200
C         -1.29600        7.80600       -1.10100
O         -1.77100        6.82000       -1.66300
N         -0.75600        8.80400       -1.74500
N         -4.81100        7.40600        1.28900
C         -6.13600        7.95800        0.99600
C         -6.66900        8.85100        2.10100
O         -7.85000        9.28400        2.07900
C         -7.09300        6.79500        0.64200
C         -7.25600        5.79100        1.82300
O         -6.69600        5.96400        2.90700
O         -8.05500        4.83700        1.68100
N         -5.82600        9.14100        3.11700
C         -6.25400       10.01500        4.19900
C         -7.19200        9.29700        5.16400
O         -7.84100        9.99400        6.02400
N         -7.35600        7.96900        5.03000
C         -8.20400        7.21900        6.02500
C         -7.22700        6.36600        6.87400
O         -6.14600        6.04200        6.44200
C         -9.19800        6.26600        5.35800
C        -10.74700        6.79900        5.04700
C        -10.90200        7.39600        3.63400
O        -10.81600        8.66600        3.48600
O        -11.09200        6.63200        2.65100
N         -7.59100        5.98000        8.10100
C         -6.72900        5.08300        8.89000
C         -6.58200        3.69600        8.28800
O         -7.53400        3.06300        7.78500
C         -7.41300        4.94500       10.27600
C         -7.23400        6.11200       11.15400
C         -8.21000        6.99300       11.53300
C         -6.01300        6.60000       11.75000
N         -7.69700        7.93700       12.35200
C         -6.34200        7.74100       12.53300
C         -4.68600        6.15500       11.79300
C         -5.36100        8.43900       13.26300
C         -3.77200        6.83400       12.49300
C         -4.09500        7.97600       13.25300
N         -5.34900        3.24400        8.34100
C         -4.99100        1.82200        8.03600
C         -4.08300        1.27400        9.11400
O         -3.28800        1.98900        9.66100
C         -4.24300        1.75600        6.70800
C         -5.01000        2.33400        5.56900
N         -6.00000        1.62700        4.92500
C         -4.99700        3.58500        5.04100
C         -6.48800        2.41200        3.95700
N         -5.96700        3.62600        4.05600
N         -4.22000       -0.01700        9.40500
C         -3.30700       -0.77800       10.21800
C         -2.33200       -1.49700        9.35800
O         -2.70900       -2.07200        8.33000
C         -4.04700       -1.76800       11.10600
C         -3.17900       -2.44400       12.23700
C         -4.01200       -3.40000       13.14800
N         -5.14800       -2.63300       13.68700
C         -6.00800       -2.99800       14.64600
N         -5.90600       -4.18700       15.32300
N         -6.98900       -2.12200       14.92200
N         -1.05500       -1.40100        9.67400
C         -0.01700       -2.03900        8.89400
C          0.84900       -2.84900        9.82800
O          1.15900       -2.43200       10.95000
C          0.88300       -0.97800        8.15500
C          0.03900       -0.16600        7.20600
C          1.56200       -0.07900        9.02800
N          1.18000       -4.04700        9.40500
C          1.89500       -4.99600       10.23200
C          3.03500       -5.53200        9.38000
O          2.84100       -5.94100        8.22000
C          1.02600       -6.14500       10.64900
O         -0.21800       -5.63400       11.17500
C          1.63800       -6.97000       11.73600
N          4.26100       -5.50800        9.90100
C          5.44100       -5.97500        9.20000
C          6.08000       -6.99800       10.10600
O          6.43500       -6.68500       11.26800
C          6.40500       -4.83800        8.90800
N          6.29000       -8.20900        9.60300
C          6.83900       -9.33600       10.41100
C          8.11500       -9.80200        9.78800
O          8.27600       -9.77700        8.55600
C          5.88900      -10.54400       10.37500
C          4.47800      -10.32000       10.86600
C          3.93700      -11.58500       11.16000
C          4.50000       -9.51300       12.14000
N          9.07900      -10.22300       10.63200
C         10.37300      -10.73700       10.11100
C         10.86100      -11.85800       10.95200
O         10.80800      -11.78300       12.21100
C         11.38300       -9.57000       10.05900
C         12.69800      -10.01800        9.34300
C         13.68100       -8.80700        9.17700
N         14.05800       -8.28000       10.48700
C         15.03100       -8.79400       11.20200
N         15.76600       -9.82500       10.80400
N         15.29900       -8.20000       12.40500
N         11.36200      -12.87400       10.28000
C         11.96900      -14.01300       10.94600
C         13.29000      -14.18900       10.19700
O         13.29600      -14.81000        9.13800
C         11.13800      -15.29300       10.74000
C          9.63800      -15.26000       11.23900
C          8.81300      -16.46600       10.85300
O          9.27000      -17.23600        9.93800
O          7.70200      -16.67600       11.43700
N         14.38600      -13.66300       10.77500
C         15.67500      -13.64800       10.05600
C         15.53700      -12.93400        8.71000
O         15.22700      -11.75200        8.66800
N         15.82800      -13.65400        7.63400
C         15.74300      -13.09000        6.26900
C         14.33800      -12.97500        5.71400
O         14.12300      -12.31800        4.71800
C         16.51500      -14.01000        5.28100
C         17.98300      -14.04500        5.69200
C         18.82800      -14.52700        4.55300
N         18.65700      -15.92500        4.31900
C         18.19900      -16.47900        3.23100
N         17.76600      -15.76500        2.21100
N         18.18700      -17.82400        3.18400
N         13.38700      -13.68900        6.34200
C         12.04600      -13.80300        5.73800
C         11.12200      -12.72800        6.33100
O         11.02700      -12.53900        7.57000
C         11.45800      -15.16200        6.03800
C         10.19200      -15.51800        5.36500
C          9.74200      -17.00400        5.76500
N          8.36400      -17.42100        5.36800
C          7.82400      -18.62300        5.66700
N          8.51600      -19.52400        6.37900
N          6.60300      -18.96000        5.23800
N         10.32700      -12.11500        5.48400
C          9.43900      -11.01600        5.93200
C          8.05600      -11.21200        5.38400
O          7.84200      -11.88700        4.36100
N          7.09000      -10.57700        6.03100
C          5.76300      -10.39800        5.45400
C          5.18800       -9.06400        5.87600
O          5.58100       -8.48300        6.89300
C          4.81900      -11.50000        5.85800
O          4.71600      -11.54500        7.24500
N          4.22900       -8.59300        5.03800
C          3.44700       -7.38100        5.37600
C          1.97700       -7.70200        5.29300
O          1.52800       -8.55700        4.46400
C          3.76600       -6.19200        4.56600
C          3.67400       -6.50100        3.06800
C          5.15200       -5.66300        4.92800
C          3.75700       -5.21300        2.09100
N          1.21500       -7.05600        6.12800
C         -0.17900       -7.17100        6.02700
C         -0.78500       -5.79600        6.20000
O         -0.34900       -4.98800        7.04500
C         -0.70000       -8.07900        7.15800
C         -2.18100       -8.48500        7.07700
C         -2.61100       -9.34300        8.22200
O         -2.33400       -9.03600        9.37100
N         -3.31000      -10.42500        7.90700
N         -1.80800       -5.45500        5.45700
C         -2.52400       -4.16200        5.52500
C         -3.98800       -4.40600        5.87900
O         -4.66200       -5.16800        5.20500
C         -2.46200       -3.39500        4.16500
C         -3.20700       -2.09700        4.21500
C         -1.04300       -3.08600        3.80000
N         -4.44900       -3.79000        6.92200
C         -5.87200       -3.83800        7.34000
C         -6.30500       -5.27400        7.56700
O         -7.46300       -5.61600        7.23700
C         -6.70700       -3.13400        6.26200
C         -6.46800       -1.58100        6.22000
O         -5.99400       -1.02800        7.19500
O         -6.67400       -0.95000        5.18500
N         -5.40600       -6.10100        8.09700
C         -5.74200       -7.47900        8.45100
C         -6.03700       -8.29600        7.22700
O         -6.62900       -9.42100        7.38800
N         -5.62300       -7.87600        6.03900
C         -5.87400       -8.63400        4.78300
C         -4.77100       -9.67100        4.38700
O         -4.06300      -10.09600        5.25800
C         -6.18600       -7.71300        3.66700
C         -7.45900       -6.96200        4.00600
C         -7.83200       -5.88400        2.95500
O         -7.17700       -5.85200        1.84200
O         -8.76900       -5.06700        3.28600
N         -4.61200      -10.09100        3.16300
C         -3.67300      -11.24700        2.92900
C         -2.20200      -10.80200        3.10500
O         -1.83200       -9.66000        2.74500
C         -3.82200      -12.00600        1.56000
C         -3.28600      -11.21300        0.38800
C         -4.14600       -9.91700        0.05000
O         -5.10400       -9.55800        0.82600
O         -3.82400       -9.25300       -0.94300
N         -1.37500      -11.73200        3.49700
C          0.04900      -11.46000        3.63700
C          0.68500      -11.28000        2.27500
O          0.22300      -11.92300        1.29400
C          0.69100      -12.63300        4.31200
C          0.19900      -12.85300        5.79600
C          0.91400      -14.07000        6.51300
C          0.24000      -11.67400        6.69400
N          1.71300      -10.43100        2.17600
C          2.66200      -10.46900        1.04100
C          4.03300      -10.71800        1.63200
O          4.39000      -10.04600        2.59200
C          2.63100       -9.13700        0.34100
C          3.72400       -8.99700       -0.82100
C          1.20100       -8.87300       -0.22400
N          4.76600      -11.66400        1.10400
C          6.05800      -12.07900        1.69100
C          7.20700      -11.68000        0.80300
O          7.03200      -11.35300       -0.38600
C          6.09900      -13.56800        2.02600
O          5.97500      -14.25400        0.80500
N          8.39900      -11.73300        1.38300
C          9.62500      -11.41400        0.65500
C         10.78800      -11.93500        1.48300
O         10.63800      -12.31800        2.64300
N         11.98500      -11.86900        0.86900
C         13.19000      -12.35400        1.53800
C         14.35500      -11.46700        1.15500
O         14.36200      -10.74500        0.09300
C         13.53000      -13.72900        1.06900
C         12.55300      -14.73100        1.57300
C         12.79000      -16.09300        0.92800
N         13.43000      -17.09500        1.79800
C         13.33600      -18.40700        1.55700
N         12.63100      -18.84500        0.51200
N         13.94900      -19.28000        2.34800
N         15.31400      -11.35100        2.09800
C         16.57100      -10.72400        1.74300
C         17.54600      -11.91700        1.37400
O         17.39100      -13.04900        1.85200
C         17.14600       -9.93800        2.94400
O         17.13800      -10.74100        4.11100
N         18.52500      -11.58500        0.51600
C         19.43900      -12.66900        0.07400
C         20.26900      -13.12600        1.26100
O         20.61500      -12.23900        2.11800
C         20.36800      -11.94700       -0.94800
C         19.79700      -10.67900       -1.18200
C         18.74000      -10.31400       -0.21500
N         20.63000      -14.40300        1.31700
C         21.53400      -14.90200        2.36100
C         22.98000      -14.54800        2.12400
O         23.38400      -14.03500        1.06500
N         23.83500      -14.81300        3.11300
C         23.63300      -15.57400        4.30600
C         23.16000      -14.77800        5.58300
O         22.74900      -15.41300        6.53900
C         25.07700      -16.08900        4.59100
C         25.94800      -15.07100        4.14700
C         25.25900      -14.44700        2.91000
N         23.23700      -13.48800        5.56600
C         23.04300      -12.77300        6.86800
C         21.60600      -12.88900        7.33700
O         20.63700      -12.73700        6.55700
C         23.41700      -11.31800        6.79400
C         24.92100      -11.09700        6.75700
O         25.64700      -11.98800        6.25700
N         25.36700       -9.92800        7.09200
N         21.43800      -13.08900        8.66000
C         20.11300      -13.30500        9.25400
C         19.67400      -12.28400       10.31400
O         18.53500      -12.39700       10.78300
C         19.92000      -14.71000        9.79600
C         20.07000      -15.79500        8.70900
C         20.87700      -14.96300       10.94000
N         20.55500      -11.35800       10.68400
C         20.26100      -10.51400       11.82100
C         20.52100       -9.04800       11.54500
O         21.43500       -8.73100       10.83800
C         21.12300      -10.89000       13.03500
N         19.66500       -8.19400       12.11100
C         19.94400       -6.79600       11.88500
C         20.83700       -6.34600       13.10200
O         20.55600       -6.61700       14.24600
C         18.65000       -6.03900       11.62400
C         18.07600       -5.69000       12.87000
C         19.01900       -4.78500       10.76200
N         21.90400       -5.66500       12.76500
C         22.87600       -5.20900       13.78300
C         22.68200       -3.78700       14.26800
O         23.52200       -3.32100       15.09700
C         24.33700       -5.32400       13.22900
C         24.88600       -6.78200       13.26800
O         25.75500       -7.15500       14.13200
N         24.34400       -7.63100       12.39100
N         21.51000       -3.20600       14.02300
C         21.18400       -1.74400       14.15700
C         20.70400       -1.35900       15.52200
O         19.67900       -1.84200       16.04400
C         20.06200       -1.40200       13.09700
N         21.44600       -0.48600       16.18100
C         21.08900       -0.06800       17.51900
C         20.88800        1.45400       17.57900
O         20.87500        2.07200       18.66600
C         22.23000       -0.48600       18.50000
C         22.33000       -2.00500       18.51100
C         23.52000       -2.37900       19.53200
C         23.88500       -3.86000       19.38600
N         24.36400       -4.51400       20.71200
N         20.75200        2.07900       16.41900
C         20.56000        3.53000       16.33600
C         19.17800        3.91600       16.83400
O         18.30500        3.08600       17.14100
N         18.93600        5.22000       16.87400
C         17.65200        5.74300       17.23100
C         16.55100        5.30100       16.26100
O         16.82900        5.00900       15.07200
C         17.65600        7.26400       17.24900
O         18.60400        7.73800       18.26600
N         15.35000        5.21100       16.79800
C         14.18900        4.83800       15.96800
C         13.52700        6.14800       15.62800
O         13.09400        6.91500       16.49400
C         13.21100        3.93200       16.74000
C         11.96100        3.66100       15.89200
C         13.92400        2.60300       17.16300
N         13.44000        6.42200       14.32900
C         12.78500        7.63800       13.82800
C         11.39400        7.28900       13.32600
O         11.22400        6.29000       12.66200
C         13.57900        8.19400       12.64300
C         14.93300        8.75000       12.98800
C         15.03600       10.14000       13.06300
C         16.04400        7.94300       13.18800
C         16.35200       10.70700       13.30200
C         17.30800        8.48900       13.45000
C         17.42200        9.85800       13.49700
O         18.71500       10.37500       13.74700
N         10.43400        8.11400       13.69300
C          9.07200        7.96300       13.23400
C          8.62500        9.23200       12.51000
O          8.87800       10.35000       12.97300
C          8.12700        7.65400       14.44300
C          8.64300        6.48100       15.28600
C          6.69300        7.41600       13.99900
C          8.70200        5.14300       14.47000
N          7.96800        9.05500       11.33700
C          7.37000       10.13200       10.59700
C          8.22900       11.00400        9.70100
O          7.69000       11.77500        8.90700
N          9.54000       10.90200        9.86700
C         10.49800       11.70200        9.15500
C         11.81800       11.73600        9.92800
O         12.05100       10.91700       10.79100
N         12.55300       12.76700        9.61200
C         13.85500       12.99500       10.28000
C         14.34000       14.40000        9.84400
O         13.88600       14.94500        8.81700
C         14.85900       11.95700        9.82700
N         15.30600       14.98100       10.57000
C         15.83000       16.31100       10.11100
C         16.46700       16.24800        8.74400
O         16.42900       17.28400        7.97300
C         16.94600       16.59600       11.14100
C         16.45500       15.94100       12.38400
C         15.74000       14.66700       11.94200
N         17.05500       15.10400        8.36200
C         17.65300       14.96300        7.00900
C         17.40300       13.51800        6.62200
O         18.26500       12.58400        6.90600
C         19.14800       15.15200        7.08400
C         19.83600       15.10700        5.62700
O         19.25100       14.60600        4.61600
O         21.08400       15.41600        5.54600
N         16.23300       13.29800        6.00300
C         15.81000       11.92000        5.68000
C         16.78000       11.26900        4.68800
O         17.08800       10.12800        4.76900
C         14.40300       11.90900        5.20000
C         13.99700       10.51800        4.73800
C         13.43900       12.28300        6.38200
N         17.20000       12.01000        3.65100
C         18.09300       11.40200        2.67800
C         19.40400       10.96900        3.27500
O         19.90100        9.90500        3.00100
C         18.38300       12.38800        1.52300
N         20.00800       11.84000        4.09600
C         21.25500       11.43500        4.76400
C         21.02400       10.22300        5.70700
O         21.78800        9.27200        5.72600
C         21.84200       12.53300        5.60200
O         22.28300       13.55000        4.67100
C         23.03400       12.01300        6.32100
N         19.94300       10.28800        6.49500
C         19.68200        9.15500        7.41000
C         19.57100        7.85800        6.67500
O         20.05200        6.79200        7.11100
C         18.37400        9.38600        8.15100
C         17.78100        8.27100        9.06800
C         18.79100        8.11800       10.24500
C         16.46600        8.74200        9.63800
N         18.83600        7.86700        5.52600
C         18.43500        6.62200        4.89400
C         19.33500        6.22000        3.72500
O         18.96100        5.37200        2.90500
C         16.94300        6.68300        4.41200
O         16.85600        7.70600        3.36800
C         16.02800        7.04200        5.58700
N         20.42700        6.97600        3.57300
C         21.29900        6.66600        2.43100
C         20.62800        6.88700        1.11900
O         20.97700        6.18300        0.14200
N         19.72500        7.88500        1.04500
C         19.05900        8.28700       -0.14300
C         17.84800        7.46000       -0.50300
O         17.13000        7.71700       -1.47300
N         17.53700        6.45200        0.29600
C         16.44600        5.58400       -0.00700
C         15.09400        6.25000        0.11700
O         14.13400        5.94600       -0.61900
C         16.53700        4.31200        0.86700
C         17.78300        3.53200        0.58800
C         17.86400        2.29200        1.56600
N         19.06200        1.48300        1.37600
C         20.20700        1.75500        1.96700
N         20.36000        2.81700        2.75000
N         21.21700        0.88800        1.81400
N         14.98200        7.17200        1.08300
C         13.80300        8.00800        1.24200
C         14.26600        9.43600        1.21300
O         15.46000        9.72700        1.56700
C         13.13500        7.79700        2.63300
C         12.44000        6.45700        2.75800
C         11.10400        6.31000        2.38800
C         13.17800        5.39100        3.28400
C         10.54400        5.01800        2.53800
C         12.60700        4.07800        3.41300
C         11.35200        3.94000        3.02600
N         13.39300       10.33400        0.81500
C         13.79200       11.76600        0.74100
C         12.98800       12.67900        1.63000
O         13.30100       13.84600        1.75200
C         13.67900       12.19100       -0.74600
O         12.34400       12.05500       -1.17700
N         11.92400       12.15200        2.22700
C         11.08600       12.98800        3.12600
C         10.34500       12.09800        4.10800
O         10.40600       10.85400        3.94900
C         10.17700       13.90500        2.34800
O          9.23300       13.12100        1.72900
N          9.71400       12.71900        5.09900
C          8.75600       12.02300        5.99700
C          7.39000       12.07100        5.38200
O          7.23700       12.20300        4.17600
N          6.41100       11.90300        6.22500
C          5.00500       12.03600        5.83700
C          4.34100       13.20100        6.58600
O          4.84100       13.73000        7.55000
C          4.18200       10.71100        6.20100
C          4.13600       10.43600        7.71400
C          4.74200        9.58500        5.43700
C          2.81200        9.76300        8.16400
N          3.23400       13.66300        6.00700
C          2.36600       14.59100        6.68700
C          1.16100       13.79700        7.04200
O          0.47500       13.28100        6.17200
C          2.02800       15.80900        5.83500
O          3.22600       16.55000        5.59400
C          0.98900       16.67900        6.57500
N          0.86000       13.65400        8.33900
C         -0.22100       12.78300        8.75300
C          0.08700       12.19800       10.13600
O          0.99800       12.67400       10.82600
N         -0.68900       11.21100       10.52600
C         -0.53500       10.60500       11.84100
C         -0.00200        9.21700       11.80100
O         -0.24800        8.41000       10.87900
C         -1.84700       10.56300       12.51200
S         -2.48200       12.16500       12.92400
N          0.69500        8.88400       12.87800
C          1.06200        7.53900       13.21700
C          0.60500        7.32300       14.63900
O          0.88200        8.19500       15.48400
C          2.60300        7.33400       13.11900
C          2.98900        5.91000       13.61500
C          3.03300        7.48900       11.70500
N         -0.04400        6.18600       14.93400
C         -0.48700        5.89300       16.31700
C         -0.33100        4.42300       16.61600
O         -0.21500        3.59000       15.69100
C         -1.92600        6.40300       16.61900
C         -2.98800        5.58900       15.87000
C         -4.39200        6.02200       16.26400
C         -5.42500        5.29700       15.40200
N         -6.76200        5.33200       16.11300
N         -0.41100        4.09500       17.91700
C         -0.44300        2.66900       18.32700
C          0.74100        1.86400       17.74200
O          0.53700        0.79400       17.15400
C         -1.77900        2.03200       18.02500
C         -2.91400        2.76600       18.75700
O         -2.69400        3.49900       19.78100
N         -4.08400        2.63300       18.25300
N          1.93400        2.41400       17.97900
C          3.13100        1.87300       17.41400
C          3.63000        0.76300       18.33800
O          4.00500        1.01500       19.51400
C          4.16900        3.01000       17.25600
C          5.54000        2.49000       16.78300
C          5.52800        1.92800       15.38300
C          6.56900        3.63000       16.88300
N          3.65600       -0.45400       17.80900
C          4.13900       -1.59400       18.56100
C          5.39600       -2.13800       17.92400
O          5.43300       -2.50700       16.68300
C          3.04400       -2.69800       18.55400
C          3.56400       -3.92900       19.38500
C          1.73000       -2.19900       19.14800
N          6.49500       -2.16100       18.69100
C          7.77900       -2.65200       18.19000
C          8.11700       -3.84300       19.05700
O          8.13900       -3.70200       20.32400
C          8.81600       -1.56100       18.33800
C          8.47200       -0.23400       17.63000
C          9.49500        0.86100       17.91200
C          8.32600       -0.52700       16.10600
N          8.27400       -5.02800       18.49300
C          8.45500       -6.15400       19.39100
C          9.36400       -7.21900       18.74800
O          8.95600       -7.92600       17.83000
C          7.14400       -6.88100       19.66600
C          7.27800       -7.82500       20.86900
N          7.86200       -7.40800       22.06700
C          7.09700       -9.15400       20.98400
C          7.93100       -8.44000       22.90300
N          7.45700       -9.50400       22.25600
N         10.53600       -7.39600       19.36600
C         11.40400       -8.59000       19.09600
C         11.01900       -9.60500       20.15400
O         11.12400       -9.29800       21.39800
C         12.85200       -8.13900       19.13400
O         13.65600       -9.28100       19.09300
N         10.52500      -10.75700       19.78000
C          9.92900      -11.74400       20.72500
C         10.99300      -12.59700       21.45200
O         11.06000      -13.74000       21.24300
C          8.96200      -12.59400       19.95500
N         11.77700      -11.93700       22.31400
C         12.84700      -12.60200       23.11500
C         12.12200      -13.68400       23.92500
O         11.06500      -13.43300       24.49500
C         13.46700      -11.54700       24.05900
C         14.55500      -12.11600       25.03000
C         14.76000      -11.30000       26.34400
N         15.29900       -9.96900       25.99400
C         16.57700       -9.75800       25.64900
N         17.42400      -10.76600       25.66500
N         17.02600       -8.54300       25.31200
N         12.69100      -14.88600       24.01000
C         12.03900      -15.94700       24.80300
C         11.71100      -15.50600       26.22200
O         12.60200      -14.96700       26.85800
C         13.10200      -17.02900       24.79900
C         13.82300      -16.76500       23.46600
C         13.87700      -15.37500       23.27800
N         10.48700      -15.74700       26.72100
C         10.15500      -15.46200       28.13100
C          9.73600      -14.00000       28.39400
O          9.21300      -13.73200       29.53500
N          9.91200      -13.09500       27.39300
C          9.72800      -11.61000       27.62500
C          8.25900      -11.32000       27.60400
O          7.45300      -12.11700       27.11400
C         10.39700      -10.81700       26.57700
N          7.86200      -10.20000       28.19700
C          6.42600       -9.93000       28.25500
C          5.85400       -9.41300       26.92100
O          6.61500       -8.99500       26.02900
C          6.33200       -8.80900       29.30000
C          7.66000       -8.11900       29.18800
C          8.65200       -9.18500       28.95900
N          4.53000       -9.40700       26.82000
C          3.88000       -8.86300       25.63900
C          4.27600       -7.39800       25.41600
O          4.49300       -6.66000       26.36800
C          2.42900       -8.92000       25.96900
C          2.29900       -9.98900       26.99700
C          3.51200       -9.84200       27.84100
N          4.33700       -6.96900       24.15400
C          4.62100       -5.58000       23.82800
C          3.42900       -4.71800       24.15300
O          2.31400       -5.17700       24.41300
C          4.83600       -5.64400       22.30100
C          3.91900       -6.70300       21.89700
C          4.15200       -7.77400       22.95600
N          3.69400       -3.40900       24.09800
C          2.64000       -2.40000       24.31500
C          2.90300       -1.21900       23.40300
O          4.07400       -0.96700       23.07600
C          2.63100       -1.94700       25.76700
C          2.20000       -3.04000       26.69600
C          2.02900       -2.54900       28.06100
O          2.93200       -1.88700       28.59800
N          0.90000       -2.85700       28.67000
N          1.86900       -0.51000       22.96300
C          2.10200        0.69900       22.10500
C          3.03900        1.68800       22.80100
O          2.97100        1.93700       24.04100
C          0.72300        1.34100       21.92500
C         -0.21300        0.24000       22.19900
C          0.44200       -0.75900       23.17900
N          3.88400        2.31800       22.00100
C          4.88000        3.20500       22.53300
C          4.23200        4.56200       22.82800
O          3.48700        5.12500       22.04100
C          5.93700        3.40300       21.42000
C          7.08000        4.32600       21.76700
C          7.78300        3.83400       23.01700
C          8.07400        4.27800       20.59300
N          4.52500        5.09000       24.00000
C          4.08800        6.44600       24.38600
C          4.90500        7.46300       23.62900
O          6.02400        7.80300       24.01600
C          4.24600        6.62500       25.91300
C          3.69400        7.94500       26.38000
O          3.63500        8.91800       25.60600
O          3.43000        8.00300       27.60500
N          4.33900        7.94000       22.53700
C          5.02600        8.86200       21.61500
C          5.22200       10.25300       22.22000
O          6.04400       10.97600       21.77100
C          4.22800        9.01100       20.31300
C          3.98000        7.67200       19.55900
C          3.21900        7.98200       18.25500
C          5.14100        6.77100       19.28500
N          4.40100       10.59300       23.21300
C          4.40200       11.94600       23.74600
C          5.24800       12.10000       24.95700
O          5.50700       13.27700       25.30700
C          2.94200       12.38100       24.10300
C          2.08000       12.52700       22.84500
C          2.71600       13.43700       21.77700
O          3.30500       14.49900       22.07800
N          2.61300       13.00800       20.52200
N          5.67600       11.00100       25.57300
C          6.46200       11.15000       26.78800
C          7.80300       10.46900       26.69500
O          8.64000       10.63300       27.62200
C          5.63500       10.65300       28.06600
C          4.26500       11.28100       28.16300
N          4.03400       12.52500       28.70900
C          3.06500       10.86600       27.67000
C          2.75100       12.84200       28.55700
N          2.13700       11.85900       27.91500
N          8.06700        9.69100       25.67000
C          9.30600        8.89300       25.54600
C         10.26900        9.23900       24.42200
O         11.22100        8.49700       24.20900
C          8.97400        7.43200       25.50300
C          8.13100        6.99800       26.73200
C          8.04700        5.46700       27.01200
N          9.31400        4.84900       27.00200
C          9.51500        3.62500       26.57500
N          8.52400        2.81800       26.19400
N         10.77300        3.19600       26.60300
N          9.99500       10.33600       23.69800
C         10.88100       10.65600       22.59600
C         12.14300       11.32500       23.14400
O         12.13000       11.94300       24.24700
C         10.20500       11.57500       21.61900
N         13.24400       11.12900       22.46500
C         14.50000       11.81800       22.79800
C         14.84300       12.97700       21.91600
O         15.81300       13.65200       22.16900
C         15.70900       10.80200       22.87400
C         16.08800       10.11300       21.51500
C         17.24600        9.13700       21.67400
O         17.52800        8.68500       22.78500
N         17.77000        8.69700       20.58100
N         14.08000       13.20800       20.84100
C         14.34400       14.27100       19.86900
C         13.05800       14.37200       19.01100
O         12.21700       13.43600       18.97400
C         15.55300       13.95000       18.94100
N         12.83000       15.53900       18.43200
C         11.66000       15.72100       17.56200
C         11.45800       17.18000       17.20400
O         12.07900       18.09000       17.80400
N         10.59100       17.44500       16.20800
C         10.30300       18.79100       15.75000
C          9.07000       18.72400       14.91000
O          8.76000       17.69800       14.34900
C         11.48300       19.36400       14.90600
N          8.35300       19.80800       14.85100
C          7.17300       19.93200       13.99500
C          6.24600       18.74300       14.11200
O          5.84000       18.15200       13.10000
C          7.54200       20.27400       12.53700
C          7.97700       21.76100       12.38300
O          7.51500       22.60300       13.14500
N          8.86300       22.03700       11.45200
N          5.87300       18.42600       15.34200
C          5.00500       17.35600       15.66400
C          4.14000       17.73200       16.77400
O          4.52400       18.66900       17.57100
C          5.84500       16.07800       15.88700
O          4.98200       15.00800       16.13000
C          6.72100       16.26600       17.18900
N          2.95800       17.14900       16.88300
C          2.07200       17.35800       18.06500
C          1.30100       16.07400       18.29500
O          1.25800       15.19700       17.41300
C          1.17800       18.55700       17.80400
C          0.23300       18.35400       16.64000
C         -0.73300       19.54700       16.55000
N         -1.40600       19.49900       15.28000
C         -1.07300       20.26000       14.21500
N         -0.16700       21.19200       14.34500
N         -1.74000       20.10600       13.07900
N          0.61500       15.89500       19.41800
C         -0.21700       14.70900       19.67300
C         -1.33100       14.60200       18.64800
O         -1.77300       15.63800       18.08800
C         -0.79600       14.93900       21.07300
C          0.10700       16.02000       21.67400
C          0.51400       16.87600       20.54500
N         -1.61200       13.37700       18.24300
C         -2.60200       13.12300       17.21500
C         -3.75800       12.43800       17.91300
O         -3.64600       11.23400       18.23800
C         -2.03000       12.19400       16.10500
S         -3.39500       11.86400       14.80300
N         -4.87400       13.18800       18.14400
C         -6.11300       12.52700       18.67800
C         -6.76900       11.75000       17.59900
O         -6.62800       12.09400       16.39200
C         -7.01200       13.69900       19.10700
C         -6.58500       14.85200       18.18100
C         -5.05500       14.63700       17.89600
N         -7.47300       10.68700       17.97900
C         -8.08100        9.85800       16.86600
C         -9.42900        9.20000       17.12200
O        -10.26900        9.18600       16.26300
C         -7.12400        8.76500       16.37700
O         -6.85400        7.90500       17.50800
O          2.00500       14.95300        1.63600
O         20.88400        9.19800       -3.08700
O         19.89800        6.86000       -4.02000
O         22.98200       10.15600        1.33700
O         11.98100       21.45400        9.64100
O         -3.45100      -10.81200       -8.10600
O          8.63200       -5.22200       23.35800
O         27.84300        6.03600       20.56200
O         23.10600        8.70200       -1.82600
O         26.22400       -4.85800        2.69500
O         17.66700       -9.37500       14.01800
O          0.01700       21.65200       10.93200
O         20.76900       -8.71000        4.15200
O         19.87200      -11.28500        4.47500
O         10.62700        9.39400        0.32400
O         14.99800       15.69100        5.19500
O          4.11600       17.82900       20.74500
O         21.00700        4.93800        9.34100
O         -1.21700       13.95200        4.31400
O         14.55600       -9.83000       16.50500
O         18.58600        5.06900       13.05200
O          6.22200       -0.97900       21.35300
O          1.98900        4.49300       19.86300
O         12.11700       -6.20100       11.41500
O         -2.35800       -3.55400       -0.18100
O          9.46200        6.93800       -0.63600
O         23.50500       -7.96200       10.14600
O          9.45100       -6.76500       11.76100
O          7.41000       14.72600        8.28600
O          7.29300      -10.59600       17.20900
O         20.51900       -4.90500       -2.03000
O         11.72900       -5.47500       21.22000
O         10.96900       14.59300        7.82800
O          3.33800       20.97700       15.91300
O         -4.05300        6.96400        5.03100
O         14.41700      -12.02500       13.06300
O         -1.04800       -5.96700        0.03900
O         12.93500       -8.39400       -1.65600
O          6.44100       -7.02100       -2.59800
O          5.67600        3.38600       26.16900
O        -10.30400        7.02000        8.90800
O         -3.73500       -6.37700       12.68900
O          4.83100       12.41900       -1.71500
O         12.27000        1.16200       25.89200
O         -1.39900       -0.53100       15.83500
O         19.78900        4.77000       20.41100
O          5.75400       16.66200        7.18400
O         11.40400        5.16300       -1.11000
O         21.10000        7.11000       16.10700
O         16.82200      -10.37900       18.04000
O          6.59000       14.00300        0.06000
O         22.16500        2.06800        8.86000
O         23.50000      -10.96000       10.18200
O         15.33000       17.34000       18.71600
O         -3.06400       17.03700       16.01100
O         17.85800       -1.89800       18.87600
O         22.12100       14.09400        1.81700
O          4.23500       14.83200       18.85900
O         -2.82600       -5.43500        9.11800
O         14.73900       -9.98800       21.41900
O         -3.56000       13.94600        5.88200
O         19.09300       -4.15400       20.25400
O         22.53100      -18.05900        6.74800
O         -9.55000        9.78400       13.65500
O          3.37900       19.34900        5.89900
O         15.94600       14.44800        2.83300
O         -2.35800       -7.09200        3.13900
O         12.48200        5.80300       27.06000
O         23.13900        6.57000       17.54200
O         16.80400        6.01200       27.96000
O         10.26300       -3.18600       21.91900
O         25.58800       -6.64700        9.05200
O          6.57700       14.84200        2.99600
O         14.93100       -6.73000       -2.81200
O          8.49100        0.41600       21.91500
O         -6.52200        4.68200       19.08600
O          8.47400       12.65700       24.46700
O         23.61900      -12.11700       -0.70900
O         -5.17400       13.60000        4.06300
O          4.21700       15.99900        3.19300
O         21.26300        6.17300       13.70300
O         19.82800       -4.77000       16.28300
O         14.40800       16.15800        0.17100
O          7.16300       12.86000        1.99000
O         20.74600        9.54000       14.65900
O         23.82400        8.97800        4.06200
O         25.86900       -5.18300       16.17700
O         19.14800       -6.05200       23.46500
O         25.41100       -3.96900        6.54400
O         22.31500        3.77900        4.72500
O         12.13300       14.63800       24.37700
O          6.13100        7.66400       -9.30300
O         16.60100       17.34700       16.26300
O         19.31800        2.55600       23.11300
O         14.03500       -0.57000       -7.23400
O          8.75700        7.23100       -9.25500
O          9.28000       22.20900       16.16200
O          8.33400       15.13100        5.53200
O          7.13100       19.93200       17.73600
O         16.98000       10.61500       -1.23000
O         11.71500      -12.04900       -2.13200
O          2.93300       -6.08600       28.48200
O          8.52600       14.98500       22.27500
O         10.56000      -11.85500       31.30700
O         21.47000       -7.93700       18.98300
O         20.40300        1.07800       21.17600
O         12.31800       18.34000       10.73300
O         15.10000       -2.22200       -1.99200
O         15.63200       -4.26100       -3.60200
O         -0.46600        8.68700       -4.63900
O         -8.67200       11.42800        0.54500
O         19.04300       -1.07200       21.62600
O         20.89400      -10.52200       16.69200
O         -0.48300       20.38900        8.57100
O         -0.05900        5.23100       -6.24200
O         24.02800       -8.02500       18.12500
O          8.11200       -6.64500       25.76200
O         -6.34800       14.17000       14.71600
O         -4.96000        5.90200       26.52700
O         12.90900      -16.87400       13.06200
O         21.37900       -1.49000        1.07400
O          8.93000        0.54100       24.61700
O         31.25800       -2.04800       20.95400
O         12.85200        8.19600       26.34000
O          6.53400       -4.88300       27.15200
O          2.38600       24.75000        8.86200
O         14.01300       18.85700        6.84700
O         -1.88700       -9.07300       -7.26600
O         10.35900       -8.69500       -2.00200
O         -4.27100       -5.88300        1.40800
O         -5.75200        9.31500       21.35300
O         14.47300      -17.74100       10.83300
O         -4.42000        6.67100       -2.65700
O        -12.47000        8.32200        4.00100
O          5.21200       -4.15100       29.46500
O         -4.67200       -0.59000       17.57600
O         28.25100        5.65300       11.27100
O         -4.20600        7.89500       24.34000
O         13.66400      -17.33300        8.44500
O         -7.25300        2.64600       12.70200
O         26.83800       -5.57400       11.43100
O         27.37200      -11.27600        3.67700
O         -4.47100       11.96200        6.79900
O         10.73000       19.70300        2.44900
O         14.23600       19.47900       12.06700
O         -3.63300       15.11100       14.05300
O          5.88100       24.67500       11.13300
O          9.43800        1.31300       -2.95800
O         23.72300        0.82600       21.98800
O          0.18800       -6.68700        2.44700
O         -9.94300       -4.73700        6.46100
O         10.15300      -14.09700       -2.05400
O         21.19100      -18.36500        3.73400
O         15.33000      -17.66500        4.26300
O         -6.95800        2.11800       17.03800
O         -2.62700       -2.13700       -6.98700
O         26.69800       -0.35700       20.68300
O          4.58400       20.15500        3.77500
O         12.55800       -2.82000       23.11300
O          6.16000        2.16000       -6.19200
O         20.76900       -8.00200       23.64500
O         10.69500        1.02100        3.74500
O          5.76700       15.47000       23.57400
O         -9.48200        2.59800        5.98300
O         24.94300       -9.48100       10.91200
O         15.58900        7.95400       27.15300
O          1.29800        1.11400       26.20800
O        -10.44400        9.95100       18.67800
O          8.45100        5.42700       -7.76700
O         10.43400       -8.77900       24.45300
O         24.87400       -2.59400        3.66300
O         20.79500       -5.49200       18.71700
O         28.37600       -1.82900       17.04100
O         25.59000        7.01000       19.17600
O         28.83900        3.35500       11.17100
O          6.95800      -11.53600       23.74600
O         17.62800       10.33100       18.26800
O         -5.74600        0.64500        0.60100
O         15.90300       17.01100        2.21300
O         -1.60600       -1.89900       30.53500
O          5.63000       18.13600        2.29300
O         -3.09700        2.36700       22.22400
O          8.18800      -14.87000       -0.64200
O         23.39700        8.44300        8.29300
O         -7.56200       -0.59200       -1.54500
O         14.93100       19.54900        9.45100
O         -8.37500        7.47700       27.85600
O          8.03200       17.14100        2.26400
O         -2.59000        6.49400       -4.95800
O          8.38100      -13.31200       23.78100
O         -2.26100       -7.07200       10.99800
O         23.33800        8.25100       15.62700
O         23.40500       -2.73200       12.48700
O         27.85800       -9.16600        5.41400
O          7.13600       20.28000        3.58600
O         -1.04800        0.40700       26.45200
O          9.77300       21.14400       18.80500
O         27.44100       -7.75700        7.70000
O          8.29600        6.96000       -4.35400
O          7.00100       -2.25500       25.56600
O         19.43300       11.50400       -2.26900
O          1.10600       20.64800        6.45700
