4941
NeonMOF
Ni       7.58937643      14.44995737       2.3838395
Ni      -3.43161838      21.65140555       2.3838395
Ni      -4.15775805       8.50621998       2.3838395
Ni       5.28772357       7.85383408       4.3711605
Ni      16.30871838       0.65238590       4.3711605
Ni      17.03485805      13.79757147       4.3711605
Ni      -5.28772357      21.88455452       4.6355061
Ni      -3.43161838       6.78221125       4.6355061
Ni       8.71934195      15.94081714       4.6355061
Ni      -7.58937643      15.28843124       6.6228271
Ni       3.43161838       8.08698305       6.6228271
Ni       4.15775805      21.23216862       6.6228271
Ni      20.46647643       7.01536022       0.1321728
Ni       9.44548162      14.21680840       0.1321728
Ni       8.71934195       1.07162283       0.1321728
Ni      18.16482357       0.41923693       2.1194938
Ni      16.30871838      15.52158020       2.1194938
Ni       4.15775805       6.36297432       2.1194938
O        6.02650855       9.09352342       2.9522457
O       14.86572343       0.67234779       2.9522457
O       17.73906802      12.53792024       2.9522457
O        6.85059145      13.21026803       3.8027542
O       -1.98862343      21.63144366       3.8027542
O       -4.86196802       9.76587121       3.8027542
O       -6.85059145      16.52812057       5.2039124
O        1.98862343       8.10694494       5.2039124
O        4.86196802      19.97251739       5.2039124
O       -6.02650855      20.64486518       6.0544209
O       -1.98862343       6.76224936       6.0544209
O        8.01513198      17.20046837       6.0544209
O       18.90360855       1.65892627       0.7005790
O       14.86572343      15.54154210       0.7005790
O        4.86196802       5.10332309       0.7005790
O       19.72769145       5.77567088       1.5510876
O       10.88847657      14.19684651       1.5510876
O        8.01513198       2.33127406       1.5510876
O        4.79252182       8.15007304       1.4739612
O       16.29976879       0.07540912       1.4739612
O       17.53900939      14.07830929       1.4739612
O        8.08457818      14.15371841       5.2810387
O       -3.42266879      22.22838234       5.2810387
O       -4.66190939       8.22548216       5.2810387
O       -8.08457818      15.58467019       3.7256279
O        3.42266879       7.51000627       3.7256279
O        4.66190939      21.51290644       3.7256279
O       -4.79252182      21.58831556       0.7777054
O       -3.42266879       7.35918803       0.7777054
O        8.21519061      15.66007931       0.7777054
O       17.66962182       0.71547589       5.9772946
O       16.29976879      14.94460342       5.9772946
O        4.66190939       6.64371214       5.9772946
O       20.96167818       6.71912126       3.0293720
O        9.45443121      14.79378518       3.0293720
O        8.21519061       0.79088501       3.0293720
O        8.28557684      13.01856695       1.0639800
O       10.33700189       0.66623655       1.0639800
O       20.00872128       8.61898795       1.0639800
O        4.59152316       9.28522451       5.6910199
O        2.54009811      21.63755490       5.6910199
O       -7.13162128      13.68480350       5.6910199
O       -4.59152316      20.45316410       3.3156467
O       -2.54009811       8.10083371       3.3156467
O        7.13162128      16.05358511       3.3156467
O       -8.28557684      16.71982166       1.1876866
O        2.54009811       6.76836060       1.1876866
O        5.74547872      21.11940065       1.1876866
O       21.16267684       5.58396979       5.5673133
O       10.33700189      15.53543086       5.5673133
O        7.13162128       1.18439080       5.5673133
O       17.46862316       1.85062736       3.4393532
O       15.41719811      14.20295775       3.4393532
O        5.74547872       6.25020635       3.4393532
C        5.51419313       9.08350902       1.7235990
C       15.13055387       0.23367682       1.7235990
C       17.98655300      12.98660561       1.7235990
C        7.36290687      13.22028244       5.0314009
C       -2.25345387      22.07011463       5.0314009
C       -5.10945300       9.31718584       5.0314009
C       -7.36290687      16.51810617       3.9752657
C        2.25345387       7.66827397       3.9752657
C        5.10945300      20.42120276       3.9752657
C       -5.51419313      20.65487959       0.5280676
C       -2.25345387       7.20092033       0.5280676
C        7.76764700      16.75178299       0.5280676
C       18.39129313       1.64891187       6.2269323
C       15.13055387      15.10287113       6.2269323
C        5.10945300       5.55200846       6.2269323
C       20.24000687       5.78568528       2.7797342
C       10.62364613      14.63551748       2.7797342
C        7.76764700       1.88258869       2.7797342
C        6.06859092      10.10874740       0.8003256
C       13.96547249       0.20118020       0.8003256
C       18.59723659      11.99386385       0.8003256
C        6.80850908      12.19504405       5.9546743
C       -1.08837249      22.10261126       5.9546743
C       -5.72013659      10.30992760       5.9546743
C       -6.80850908      17.54334455       3.0519923
C        1.08837249       7.63577735       3.0519923
C        5.72013659      19.42846101       3.0519923
C       -6.06859092      19.62964120       1.4513410
C       -1.08837249       7.23341695       1.4513410
C        7.15696341      17.74452475       1.4513410
C       18.94569092       2.67415025       5.3036589
C       13.96547249      15.07037450       5.3036589
C        5.72013659       4.55926670       5.3036589
C       19.68560908       4.76044690       3.7030076
C       11.78872751      14.66801410       3.7030076
C        7.15696341       2.87533045       3.7030076
C        7.33158976      12.23891561       0.5342934
C       11.48919328       0.22988518       0.5342934
C       19.81051695       9.83499066       0.5342934
C        5.54551024      10.06487584       6.2207065
C        1.38790672      22.07390628       6.2207065
C       -6.93341695      12.46880079       6.2207065
C       -5.54551024      19.67351276       2.7859601
C       -1.38790672       7.66448233       2.7859601
C        6.93341695      17.26958782       2.7859601
C       -7.33158976      17.49947299       1.7173731
C        1.38790672       7.20471197       1.7173731
C        5.94368305      19.90339794       1.7173731
C       20.20868976       4.80431846       5.0376268
C       11.48919328      15.09907948       5.0376268
C        6.93341695       2.40039351       5.0376268
C       18.42261024       2.63027869       3.9690398
C       14.26500672      14.63930912       3.9690398
C        5.94368305       5.03420364       3.9690398
C        6.92232977      11.09151936       1.3143000
C       12.68749758       0.44915375       1.3143000
C       19.02147265      10.76311834       1.3143000
C        5.95477023      11.21227209       5.4406999
C        0.18960242      21.85463770       5.4406999
C       -6.14437265      11.54067312       5.4406999
C       -5.95477023      18.52611651       3.5659667
C       -0.18960242       7.88375090       3.5659667
C        6.14437265      18.19771549       3.5659667
C       -6.92232977      18.64686924       0.9373665
C        0.18960242       6.98544340       0.9373665
C        6.73272735      18.97527027       0.9373665
C       19.79942977       3.65692221       5.8176334
C       12.68749758      15.31834806       5.8176334
C        6.14437265       3.32852119       5.8176334
C       18.83187023       3.77767494       3.1890332
C       13.06670242      14.42004055       3.1890332
C        6.73272735       4.10607596       3.1890332
H        7.24671680      11.00121131       2.2133162
H       12.60351313       0.77523518       2.2133162
H       18.78107007      10.52734496       2.2133162
H        5.63038320      11.30258014       4.5416837
H        0.27358687      21.52855627       4.5416837
H       -5.90397007      11.77644650       4.5416837
H       -5.63038320      18.43580846       4.4649829
H       -0.27358687       8.20983233       4.4649829
H        5.90397007      17.96194211       4.4649829
H       -7.24671680      18.73717729       0.0383503
H        0.27358687       6.65936197       0.0383503
H        6.97312993      19.21104365       0.0383503
H       20.12381680       3.56661416       6.7166496
H       12.60351313      15.64442949       6.7166496
H        5.90397007       3.09274781       6.7166496
H       18.50748320       3.86798299       2.2900170
H       13.15068687      14.09395912       2.2900170
H        6.97312993       4.34184934       2.2900170
Ne      -2.21486120      11.35709061       1.1348400
Ne       4.14900162      14.70712008       1.1348400
Ne      -1.93414042      18.54337221       1.1348400
Ne      15.09196120      10.94670085       5.6201600
Ne       8.72809838       7.59667137       5.6201600
Ne      14.81124042       3.76041924       5.6201600
Ne      10.66223880      18.79168776       3.3865066
Ne      -8.72809838      22.14171724       3.3865066
Ne      -1.93414042       3.67417791       3.3865066
Ne       2.21486120      18.38129800       1.1168266
Ne      -4.14900162      15.03126852       1.1168266
Ne       1.93414042      11.19501639       1.1168266
Ne      10.66223880       3.92249346       5.6381733
Ne      17.02610162       7.27252293       5.6381733
Ne      10.94295958      11.10877506       5.6381733
Ne       2.21486120       3.51210369       3.3684933
Ne      21.60519838       0.16207422       3.3684933
Ne      14.81124042      18.62961354       3.3684933
Ne       0.00000000       0.00000000       3.3775000
Ne      12.87710000       7.43459715       5.6291666
Ne       0.00000000      14.86919430       1.1258333
Ni       7.58937643      14.44995737       9.1388395
Ni      -3.43161838      21.65140555       9.1388395
Ni      -4.15775805       8.50621998       9.1388395
Ni       5.28772357       7.85383408      11.1261605
Ni      16.30871838       0.65238590      11.1261605
Ni      17.03485805      13.79757147      11.1261605
Ni      -5.28772357      21.88455452      11.3905061
Ni      -3.43161838       6.78221125      11.3905061
Ni       8.71934195      15.94081714      11.3905061
Ni      -7.58937643      15.28843124      13.3778271
Ni       3.43161838       8.08698305      13.3778271
Ni       4.15775805      21.23216862      13.3778271
Ni      20.46647643       7.01536022       6.8871728
Ni       9.44548162      14.21680840       6.8871728
Ni       8.71934195       1.07162283       6.8871728
Ni      18.16482357       0.41923693       8.8744938
Ni      16.30871838      15.52158020       8.8744938
Ni       4.15775805       6.36297432       8.8744938
O        6.02650855       9.09352342       9.7072457
O       14.86572343       0.67234779       9.7072457
O       17.73906802      12.53792024       9.7072457
O        6.85059145      13.21026803      10.5577542
O       -1.98862343      21.63144366      10.5577542
O       -4.86196802       9.76587121      10.5577542
O       -6.85059145      16.52812057      11.9589124
O        1.98862343       8.10694494      11.9589124
O        4.86196802      19.97251739      11.9589124
O       -6.02650855      20.64486518      12.8094209
O       -1.98862343       6.76224936      12.8094209
O        8.01513198      17.20046837      12.8094209
O       18.90360855       1.65892627       7.4555790
O       14.86572343      15.54154210       7.4555790
O        4.86196802       5.10332309       7.4555790
O       19.72769145       5.77567088       8.3060876
O       10.88847657      14.19684651       8.3060876
O        8.01513198       2.33127406       8.3060876
O        4.79252182       8.15007304       8.2289612
O       16.29976879       0.07540912       8.2289612
O       17.53900939      14.07830929       8.2289612
O        8.08457818      14.15371841      12.0360387
O       -3.42266879      22.22838234      12.0360387
O       -4.66190939       8.22548216      12.0360387
O       -8.08457818      15.58467019      10.4806279
O        3.42266879       7.51000627      10.4806279
O        4.66190939      21.51290644      10.4806279
O       -4.79252182      21.58831556       7.5327054
O       -3.42266879       7.35918803       7.5327054
O        8.21519061      15.66007931       7.5327054
O       17.66962182       0.71547589      12.7322946
O       16.29976879      14.94460342      12.7322946
O        4.66190939       6.64371214      12.7322946
O       20.96167818       6.71912126       9.7843720
O        9.45443121      14.79378518       9.7843720
O        8.21519061       0.79088501       9.7843720
O        8.28557684      13.01856695       7.8189800
O       10.33700189       0.66623655       7.8189800
O       20.00872128       8.61898795       7.8189800
O        4.59152316       9.28522451      12.4460199
O        2.54009811      21.63755490      12.4460199
O       -7.13162128      13.68480350      12.4460199
O       -4.59152316      20.45316410      10.0706467
O       -2.54009811       8.10083371      10.0706467
O        7.13162128      16.05358511      10.0706467
O       -8.28557684      16.71982166       7.9426866
O        2.54009811       6.76836060       7.9426866
O        5.74547872      21.11940065       7.9426866
O       21.16267684       5.58396979      12.3223133
O       10.33700189      15.53543086      12.3223133
O        7.13162128       1.18439080      12.3223133
O       17.46862316       1.85062736      10.1943532
O       15.41719811      14.20295775      10.1943532
O        5.74547872       6.25020635      10.1943532
C        5.51419313       9.08350902       8.4785990
C       15.13055387       0.23367682       8.4785990
C       17.98655300      12.98660561       8.4785990
C        7.36290687      13.22028244      11.7864009
C       -2.25345387      22.07011463      11.7864009
C       -5.10945300       9.31718584      11.7864009
C       -7.36290687      16.51810617      10.7302657
C        2.25345387       7.66827397      10.7302657
C        5.10945300      20.42120276      10.7302657
C       -5.51419313      20.65487959       7.2830676
C       -2.25345387       7.20092033       7.2830676
C        7.76764700      16.75178299       7.2830676
C       18.39129313       1.64891187      12.9819323
C       15.13055387      15.10287113      12.9819323
C        5.10945300       5.55200846      12.9819323
C       20.24000687       5.78568528       9.5347342
C       10.62364613      14.63551748       9.5347342
C        7.76764700       1.88258869       9.5347342
C        6.06859092      10.10874740       7.5553256
C       13.96547249       0.20118020       7.5553256
C       18.59723659      11.99386385       7.5553256
C        6.80850908      12.19504405      12.7096743
C       -1.08837249      22.10261126      12.7096743
C       -5.72013659      10.30992760      12.7096743
C       -6.80850908      17.54334455       9.8069923
C        1.08837249       7.63577735       9.8069923
C        5.72013659      19.42846101       9.8069923
C       -6.06859092      19.62964120       8.2063410
C       -1.08837249       7.23341695       8.2063410
C        7.15696341      17.74452475       8.2063410
C       18.94569092       2.67415025      12.0586589
C       13.96547249      15.07037450      12.0586589
C        5.72013659       4.55926670      12.0586589
C       19.68560908       4.76044690      10.4580076
C       11.78872751      14.66801410      10.4580076
C        7.15696341       2.87533045      10.4580076
C        7.33158976      12.23891561       7.2892934
C       11.48919328       0.22988518       7.2892934
C       19.81051695       9.83499066       7.2892934
C        5.54551024      10.06487584      12.9757065
C        1.38790672      22.07390628      12.9757065
C       -6.93341695      12.46880079      12.9757065
C       -5.54551024      19.67351276       9.5409601
C       -1.38790672       7.66448233       9.5409601
C        6.93341695      17.26958782       9.5409601
C       -7.33158976      17.49947299       8.4723731
C        1.38790672       7.20471197       8.4723731
C        5.94368305      19.90339794       8.4723731
C       20.20868976       4.80431846      11.7926268
C       11.48919328      15.09907948      11.7926268
C        6.93341695       2.40039351      11.7926268
C       18.42261024       2.63027869      10.7240398
C       14.26500672      14.63930912      10.7240398
C        5.94368305       5.03420364      10.7240398
C        6.92232977      11.09151936       8.0693000
C       12.68749758       0.44915375       8.0693000
C       19.02147265      10.76311834       8.0693000
C        5.95477023      11.21227209      12.1956999
C        0.18960242      21.85463770      12.1956999
C       -6.14437265      11.54067312      12.1956999
C       -5.95477023      18.52611651      10.3209667
C       -0.18960242       7.88375090      10.3209667
C        6.14437265      18.19771549      10.3209667
C       -6.92232977      18.64686924       7.6923665
C        0.18960242       6.98544340       7.6923665
C        6.73272735      18.97527027       7.6923665
C       19.79942977       3.65692221      12.5726334
C       12.68749758      15.31834806      12.5726334
C        6.14437265       3.32852119      12.5726334
C       18.83187023       3.77767494       9.9440332
C       13.06670242      14.42004055       9.9440332
C        6.73272735       4.10607596       9.9440332
H        7.24671680      11.00121131       8.9683162
H       12.60351313       0.77523518       8.9683162
H       18.78107007      10.52734496       8.9683162
H        5.63038320      11.30258014      11.2966837
H        0.27358687      21.52855627      11.2966837
H       -5.90397007      11.77644650      11.2966837
H       -5.63038320      18.43580846      11.2199829
H       -0.27358687       8.20983233      11.2199829
H        5.90397007      17.96194211      11.2199829
H       -7.24671680      18.73717729       6.7933503
H        0.27358687       6.65936197       6.7933503
H        6.97312993      19.21104365       6.7933503
H       20.12381680       3.56661416      13.4716496
H       12.60351313      15.64442949      13.4716496
H        5.90397007       3.09274781      13.4716496
H       18.50748320       3.86798299       9.0450170
H       13.15068687      14.09395912       9.0450170
H        6.97312993       4.34184934       9.0450170
Ne      -2.21486120      11.35709061       7.8898400
Ne       4.14900162      14.70712008       7.8898400
Ne      -1.93414042      18.54337221       7.8898400
Ne      15.09196120      10.94670085      12.3751600
Ne       8.72809838       7.59667137      12.3751600
Ne      14.81124042       3.76041924      12.3751600
Ne      10.66223880      18.79168776      10.1415066
Ne      -8.72809838      22.14171724      10.1415066
Ne      -1.93414042       3.67417791      10.1415066
Ne       2.21486120      18.38129800       7.8718266
Ne      -4.14900162      15.03126852       7.8718266
Ne       1.93414042      11.19501639       7.8718266
Ne      10.66223880       3.92249346      12.3931733
Ne      17.02610162       7.27252293      12.3931733
Ne      10.94295958      11.10877506      12.3931733
Ne       2.21486120       3.51210369      10.1234933
Ne      21.60519838       0.16207422      10.1234933
Ne      14.81124042      18.62961354      10.1234933
Ne       0.00000000       0.00000000      10.1325000
Ne      12.87710000       7.43459715      12.3841666
Ne       0.00000000      14.86919430       7.8808333
Ni       7.58937643      14.44995737      15.8938395
Ni      -3.43161838      21.65140555      15.8938395
Ni      -4.15775805       8.50621998      15.8938395
Ni       5.28772357       7.85383408      17.8811605
Ni      16.30871838       0.65238590      17.8811605
Ni      17.03485805      13.79757147      17.8811605
Ni      -5.28772357      21.88455452      18.1455061
Ni      -3.43161838       6.78221125      18.1455061
Ni       8.71934195      15.94081714      18.1455061
Ni      -7.58937643      15.28843124      20.1328271
Ni       3.43161838       8.08698305      20.1328271
Ni       4.15775805      21.23216862      20.1328271
Ni      20.46647643       7.01536022      13.6421728
Ni       9.44548162      14.21680840      13.6421728
Ni       8.71934195       1.07162283      13.6421728
Ni      18.16482357       0.41923693      15.6294938
Ni      16.30871838      15.52158020      15.6294938
Ni       4.15775805       6.36297432      15.6294938
O        6.02650855       9.09352342      16.4622457
O       14.86572343       0.67234779      16.4622457
O       17.73906802      12.53792024      16.4622457
O        6.85059145      13.21026803      17.3127542
O       -1.98862343      21.63144366      17.3127542
O       -4.86196802       9.76587121      17.3127542
O       -6.85059145      16.52812057      18.7139124
O        1.98862343       8.10694494      18.7139124
O        4.86196802      19.97251739      18.7139124
O       -6.02650855      20.64486518      19.5644209
O       -1.98862343       6.76224936      19.5644209
O        8.01513198      17.20046837      19.5644209
O       18.90360855       1.65892627      14.2105790
O       14.86572343      15.54154210      14.2105790
O        4.86196802       5.10332309      14.2105790
O       19.72769145       5.77567088      15.0610876
O       10.88847657      14.19684651      15.0610876
O        8.01513198       2.33127406      15.0610876
O        4.79252182       8.15007304      14.9839612
O       16.29976879       0.07540912      14.9839612
O       17.53900939      14.07830929      14.9839612
O        8.08457818      14.15371841      18.7910387
O       -3.42266879      22.22838234      18.7910387
O       -4.66190939       8.22548216      18.7910387
O       -8.08457818      15.58467019      17.2356279
O        3.42266879       7.51000627      17.2356279
O        4.66190939      21.51290644      17.2356279
O       -4.79252182      21.58831556      14.2877054
O       -3.42266879       7.35918803      14.2877054
O        8.21519061      15.66007931      14.2877054
O       17.66962182       0.71547589      19.4872946
O       16.29976879      14.94460342      19.4872946
O        4.66190939       6.64371214      19.4872946
O       20.96167818       6.71912126      16.5393720
O        9.45443121      14.79378518      16.5393720
O        8.21519061       0.79088501      16.5393720
O        8.28557684      13.01856695      14.5739800
O       10.33700189       0.66623655      14.5739800
O       20.00872128       8.61898795      14.5739800
O        4.59152316       9.28522451      19.2010199
O        2.54009811      21.63755490      19.2010199
O       -7.13162128      13.68480350      19.2010199
O       -4.59152316      20.45316410      16.8256467
O       -2.54009811       8.10083371      16.8256467
O        7.13162128      16.05358511      16.8256467
O       -8.28557684      16.71982166      14.6976866
O        2.54009811       6.76836060      14.6976866
O        5.74547872      21.11940065      14.6976866
O       21.16267684       5.58396979      19.0773133
O       10.33700189      15.53543086      19.0773133
O        7.13162128       1.18439080      19.0773133
O       17.46862316       1.85062736      16.9493532
O       15.41719811      14.20295775      16.9493532
O        5.74547872       6.25020635      16.9493532
C        5.51419313       9.08350902      15.2335990
C       15.13055387       0.23367682      15.2335990
C       17.98655300      12.98660561      15.2335990
C        7.36290687      13.22028244      18.5414009
C       -2.25345387      22.07011463      18.5414009
C       -5.10945300       9.31718584      18.5414009
C       -7.36290687      16.51810617      17.4852657
C        2.25345387       7.66827397      17.4852657
C        5.10945300      20.42120276      17.4852657
C       -5.51419313      20.65487959      14.0380676
C       -2.25345387       7.20092033      14.0380676
C        7.76764700      16.75178299      14.0380676
C       18.39129313       1.64891187      19.7369323
C       15.13055387      15.10287113      19.7369323
C        5.10945300       5.55200846      19.7369323
C       20.24000687       5.78568528      16.2897342
C       10.62364613      14.63551748      16.2897342
C        7.76764700       1.88258869      16.2897342
C        6.06859092      10.10874740      14.3103256
C       13.96547249       0.20118020      14.3103256
C       18.59723659      11.99386385      14.3103256
C        6.80850908      12.19504405      19.4646743
C       -1.08837249      22.10261126      19.4646743
C       -5.72013659      10.30992760      19.4646743
C       -6.80850908      17.54334455      16.5619923
C        1.08837249       7.63577735      16.5619923
C        5.72013659      19.42846101      16.5619923
C       -6.06859092      19.62964120      14.9613410
C       -1.08837249       7.23341695      14.9613410
C        7.15696341      17.74452475      14.9613410
C       18.94569092       2.67415025      18.8136589
C       13.96547249      15.07037450      18.8136589
C        5.72013659       4.55926670      18.8136589
C       19.68560908       4.76044690      17.2130076
C       11.78872751      14.66801410      17.2130076
C        7.15696341       2.87533045      17.2130076
C        7.33158976      12.23891561      14.0442934
C       11.48919328       0.22988518      14.0442934
C       19.81051695       9.83499066      14.0442934
C        5.54551024      10.06487584      19.7307065
C        1.38790672      22.07390628      19.7307065
C       -6.93341695      12.46880079      19.7307065
C       -5.54551024      19.67351276      16.2959601
C       -1.38790672       7.66448233      16.2959601
C        6.93341695      17.26958782      16.2959601
C       -7.33158976      17.49947299      15.2273731
C        1.38790672       7.20471197      15.2273731
C        5.94368305      19.90339794      15.2273731
C       20.20868976       4.80431846      18.5476268
C       11.48919328      15.09907948      18.5476268
C        6.93341695       2.40039351      18.5476268
C       18.42261024       2.63027869      17.4790398
C       14.26500672      14.63930912      17.4790398
C        5.94368305       5.03420364      17.4790398
C        6.92232977      11.09151936      14.8243000
C       12.68749758       0.44915375      14.8243000
C       19.02147265      10.76311834      14.8243000
C        5.95477023      11.21227209      18.9506999
C        0.18960242      21.85463770      18.9506999
C       -6.14437265      11.54067312      18.9506999
C       -5.95477023      18.52611651      17.0759667
C       -0.18960242       7.88375090      17.0759667
C        6.14437265      18.19771549      17.0759667
C       -6.92232977      18.64686924      14.4473665
C        0.18960242       6.98544340      14.4473665
C        6.73272735      18.97527027      14.4473665
C       19.79942977       3.65692221      19.3276334
C       12.68749758      15.31834806      19.3276334
C        6.14437265       3.32852119      19.3276334
C       18.83187023       3.77767494      16.6990332
C       13.06670242      14.42004055      16.6990332
C        6.73272735       4.10607596      16.6990332
H        7.24671680      11.00121131      15.7233162
H       12.60351313       0.77523518      15.7233162
H       18.78107007      10.52734496      15.7233162
H        5.63038320      11.30258014      18.0516837
H        0.27358687      21.52855627      18.0516837
H       -5.90397007      11.77644650      18.0516837
H       -5.63038320      18.43580846      17.9749829
H       -0.27358687       8.20983233      17.9749829
H        5.90397007      17.96194211      17.9749829
H       -7.24671680      18.73717729      13.5483503
H        0.27358687       6.65936197      13.5483503
H        6.97312993      19.21104365      13.5483503
H       20.12381680       3.56661416      20.2266496
H       12.60351313      15.64442949      20.2266496
H        5.90397007       3.09274781      20.2266496
H       18.50748320       3.86798299      15.8000170
H       13.15068687      14.09395912      15.8000170
H        6.97312993       4.34184934      15.8000170
Ne      -2.21486120      11.35709061      14.6448400
Ne       4.14900162      14.70712008      14.6448400
Ne      -1.93414042      18.54337221      14.6448400
Ne      15.09196120      10.94670085      19.1301600
Ne       8.72809838       7.59667137      19.1301600
Ne      14.81124042       3.76041924      19.1301600
Ne      10.66223880      18.79168776      16.8965066
Ne      -8.72809838      22.14171724      16.8965066
Ne      -1.93414042       3.67417791      16.8965066
Ne       2.21486120      18.38129800      14.6268266
Ne      -4.14900162      15.03126852      14.6268266
Ne       1.93414042      11.19501639      14.6268266
Ne      10.66223880       3.92249346      19.1481733
Ne      17.02610162       7.27252293      19.1481733
Ne      10.94295958      11.10877506      19.1481733
Ne       2.21486120       3.51210369      16.8784933
Ne      21.60519838       0.16207422      16.8784933
Ne      14.81124042      18.62961354      16.8784933
Ne       0.00000000       0.00000000      16.8875000
Ne      12.87710000       7.43459715      19.1391666
Ne       0.00000000      14.86919430      14.6358333
Ni      -5.28772357      36.75374882       2.3838395
Ni     -16.30871838      43.95519701       2.3838395
Ni     -17.03485805      30.81001144       2.3838395
Ni      -7.58937643      30.15762554       4.3711605
Ni       3.43161838      22.95617735       4.3711605
Ni       4.15775805      36.10136292       4.3711605
Ni     -18.16482357      44.18834597       4.6355061
Ni     -16.30871838      29.08600271       4.6355061
Ni      -4.15775805      38.24460859       4.6355061
Ni     -20.46647643      37.59222269       6.6228271
Ni      -9.44548162      30.39077451       6.6228271
Ni      -8.71934195      43.53596007       6.6228271
Ni       7.58937643      29.31915167       0.1321728
Ni      -3.43161838      36.52059986       0.1321728
Ni      -4.15775805      23.37541429       0.1321728
Ni       5.28772357      22.72302839       2.1194938
Ni       3.43161838      37.82537166       2.1194938
Ni      -8.71934195      28.66676577       2.1194938
O       -6.85059145      31.39731488       2.9522457
O        1.98862343      22.97613925       2.9522457
O        4.86196802      34.84171169       2.9522457
O       -6.02650855      35.51405949       3.8027542
O      -14.86572343      43.93523511       3.8027542
O      -17.73906802      32.06966267       3.8027542
O      -19.72769145      38.83191203       5.2039124
O      -10.88847657      30.41073640       5.2039124
O       -8.01513198      42.27630884       5.2039124
O      -18.90360855      42.94865664       6.0544209
O      -14.86572343      29.06604081       6.0544209
O       -4.86196802      39.50425982       6.0544209
O        6.02650855      23.96271772       0.7005790
O        1.98862343      37.84533355       0.7005790
O       -8.01513198      27.40711454       0.7005790
O        6.85059145      28.07946234       1.5510876
O       -1.98862343      36.50063796       1.5510876
O       -4.86196802      24.63506552       1.5510876
O       -8.08457818      30.45386450       1.4739612
O        3.42266879      22.37920057       1.4739612
O        4.66190939      36.38210075       1.4739612
O       -4.79252182      36.45750987       5.2810387
O      -16.29976879      44.53217379       5.2810387
O      -17.53900939      30.52927362       5.2810387
O      -20.96167818      37.88846165       3.7256279
O       -9.45443121      29.81379772       3.7256279
O       -8.21519061      43.81669790       3.7256279
O      -17.66962182      43.89210702       0.7777054
O      -16.29976879      29.66297949       0.7777054
O       -4.66190939      37.96387077       0.7777054
O        4.79252182      23.01926735       5.9772946
O        3.42266879      37.24839488       5.9772946
O       -8.21519061      28.94750360       5.9772946
O        8.08457818      29.02291271       3.0293720
O       -3.42266879      37.09757664       3.0293720
O       -4.66190939      23.09467646       3.0293720
O       -4.59152316      35.32235840       1.0639800
O       -2.54009811      22.97002801       1.0639800
O        7.13162128      30.92277941       1.0639800
O       -8.28557684      31.58901596       5.6910199
O      -10.33700189      43.94134635       5.6910199
O      -20.00872128      35.98859495       5.6910199
O      -17.46862316      42.75695555       3.3156467
O      -15.41719811      30.40462516       3.3156467
O       -5.74547872      38.35737656       3.3156467
O      -21.16267684      39.02361311       1.1876866
O      -10.33700189      29.07215205       1.1876866
O       -7.13162128      43.42319211       1.1876866
O        8.28557684      27.88776125       5.5673133
O       -2.54009811      37.83922231       5.5673133
O       -5.74547872      23.48818226       5.5673133
O        4.59152316      24.15441881       3.4393532
O        2.54009811      36.50674920       3.4393532
O       -7.13162128      28.55399780       3.4393532
C       -7.36290687      31.38730047       1.7235990
C        2.25345387      22.53746828       1.7235990
C        5.10945300      35.29039707       1.7235990
C       -5.51419313      35.52407389       5.0314009
C      -15.13055387      44.37390609       5.0314009
C      -17.98655300      31.62097730       5.0314009
C      -20.24000687      38.82189762       3.9752657
C      -10.62364613      29.97206543       3.9752657
C       -7.76764700      42.72499422       3.9752657
C      -18.39129313      42.95867104       0.5280676
C      -15.13055387      29.50471178       0.5280676
C       -5.10945300      39.05557445       0.5280676
C        5.51419313      23.95270332       6.2269323
C        2.25345387      37.40666258       6.2269323
C       -7.76764700      27.85579991       6.2269323
C        7.36290687      28.08947674       2.7797342
C       -2.25345387      36.93930893       2.7797342
C       -5.10945300      24.18638014       2.7797342
C       -6.80850908      32.41253885       0.8003256
C        1.08837249      22.50497165       0.8003256
C        5.72013659      34.29765531       0.8003256
C       -6.06859092      34.49883551       5.9546743
C      -13.96547249      44.40640271       5.9546743
C      -18.59723659      32.61371905       5.9546743
C      -19.68560908      39.84713601       3.0519923
C      -11.78872751      29.93956880       3.0519923
C       -7.15696341      41.73225246       3.0519923
C      -18.94569092      41.93343266       1.4513410
C      -13.96547249      29.53720841       1.4513410
C       -5.72013659      40.04831621       1.4513410
C        6.06859092      24.97794170       5.3036589
C        1.08837249      37.37416596       5.3036589
C       -7.15696341      26.86305816       5.3036589
C        6.80850908      27.06423836       3.7030076
C       -1.08837249      36.97180556       3.7030076
C       -5.72013659      25.17912190       3.7030076
C       -5.54551024      34.54270707       0.5342934
C       -1.38790672      22.53367663       0.5342934
C        6.93341695      32.13878212       0.5342934
C       -7.33158976      32.36866730       6.2207065
C      -11.48919328      44.37769773       6.2207065
C      -19.81051695      34.77259224       6.2207065
C      -18.42261024      41.97730422       2.7859601
C      -14.26500672      29.96827378       2.7859601
C       -5.94368305      39.57337927       2.7859601
C      -20.20868976      39.80326445       1.7173731
C      -11.48919328      29.50850343       1.7173731
C       -6.93341695      42.20718940       1.7173731
C        7.33158976      27.10810991       5.0376268
C       -1.38790672      37.40287094       5.0376268
C       -5.94368305      24.70418497       5.0376268
C        5.54551024      24.93407015       3.9690398
C        1.38790672      36.94310058       3.9690398
C       -6.93341695      27.33799509       3.9690398
C       -5.95477023      33.39531082       1.3143000
C       -0.18960242      22.75294521       1.3143000
C        6.14437265      33.06690979       1.3143000
C       -6.92232977      33.51606354       5.4406999
C      -12.68749758      44.15842916       5.4406999
C      -19.02147265      33.84446457       5.4406999
C      -18.83187023      40.82990797       3.5659667
C      -13.06670242      30.18754236       3.5659667
C       -6.73272735      40.50150694       3.5659667
C      -19.79942977      40.95066070       0.9373665
C      -12.68749758      29.28923485       0.9373665
C       -6.14437265      41.27906172       0.9373665
C        6.92232977      25.96071367       5.8176334
C       -0.18960242      37.62213951       5.8176334
C       -6.73272735      25.63231264       5.8176334
C        5.95477023      26.08146639       3.1890332
C        0.18960242      36.72383200       3.1890332
C       -6.14437265      26.40986742       3.1890332
H       -5.63038320      33.30500277       2.2133162
H       -0.27358687      23.07902664       2.2133162
H        5.90397007      32.83113641       2.2133162
H       -7.24671680      33.60637160       4.5416837
H      -12.60351313      43.83234772       4.5416837
H      -18.78107007      34.08023795       4.5416837
H      -18.50748320      40.73959992       4.4649829
H      -13.15068687      30.51362379       4.4649829
H       -6.97312993      40.26573356       4.4649829
H      -20.12381680      41.04096875       0.0383503
H      -12.60351313      28.96315342       0.0383503
H       -5.90397007      41.51483510       0.0383503
H        7.24671680      25.87040561       6.7166496
H       -0.27358687      37.94822094       6.7166496
H       -6.97312993      25.39653926       6.7166496
H        5.63038320      26.17177444       2.2900170
H        0.27358687      36.39775057       2.2900170
H       -5.90397007      26.64564080       2.2900170
Ne     -15.09196120      33.66088206       1.1348400
Ne      -8.72809838      37.01091154       1.1348400
Ne     -14.81124042      40.84716367       1.1348400
Ne       2.21486120      33.25049230       5.6201600
Ne      -4.14900162      29.90046282       5.6201600
Ne       1.93414042      26.06421069       5.6201600
Ne      -2.21486120      41.09547921       3.3865066
Ne     -21.60519838      44.44550869       3.3865066
Ne     -14.81124042      25.97796937       3.3865066
Ne     -10.66223880      40.68508945       1.1168266
Ne     -17.02610162      37.33505997       1.1168266
Ne     -10.94295958      33.49880784       1.1168266
Ne      -2.21486120      26.22628491       5.6381733
Ne       4.14900162      29.57631439       5.6381733
Ne      -1.93414042      33.41256652       5.6381733
Ne     -10.66223880      25.81589515       3.3684933
Ne       8.72809838      22.46586567       3.3684933
Ne       1.93414042      40.93340500       3.3684933
Ne     -12.87710000      22.30379145       3.3775000
Ne       0.00000000      29.73838861       5.6291666
Ne     -12.87710000      37.17298576       1.1258333
Ni      -5.28772357      36.75374882       9.1388395
Ni     -16.30871838      43.95519701       9.1388395
Ni     -17.03485805      30.81001144       9.1388395
Ni      -7.58937643      30.15762554      11.1261605
Ni       3.43161838      22.95617735      11.1261605
Ni       4.15775805      36.10136292      11.1261605
Ni     -18.16482357      44.18834597      11.3905061
Ni     -16.30871838      29.08600271      11.3905061
Ni      -4.15775805      38.24460859      11.3905061
Ni     -20.46647643      37.59222269      13.3778271
Ni      -9.44548162      30.39077451      13.3778271
Ni      -8.71934195      43.53596007      13.3778271
Ni       7.58937643      29.31915167       6.8871728
Ni      -3.43161838      36.52059986       6.8871728
Ni      -4.15775805      23.37541429       6.8871728
Ni       5.28772357      22.72302839       8.8744938
Ni       3.43161838      37.82537166       8.8744938
Ni      -8.71934195      28.66676577       8.8744938
O       -6.85059145      31.39731488       9.7072457
O        1.98862343      22.97613925       9.7072457
O        4.86196802      34.84171169       9.7072457
O       -6.02650855      35.51405949      10.5577542
O      -14.86572343      43.93523511      10.5577542
O      -17.73906802      32.06966267      10.5577542
O      -19.72769145      38.83191203      11.9589124
O      -10.88847657      30.41073640      11.9589124
O       -8.01513198      42.27630884      11.9589124
O      -18.90360855      42.94865664      12.8094209
O      -14.86572343      29.06604081      12.8094209
O       -4.86196802      39.50425982      12.8094209
O        6.02650855      23.96271772       7.4555790
O        1.98862343      37.84533355       7.4555790
O       -8.01513198      27.40711454       7.4555790
O        6.85059145      28.07946234       8.3060876
O       -1.98862343      36.50063796       8.3060876
O       -4.86196802      24.63506552       8.3060876
O       -8.08457818      30.45386450       8.2289612
O        3.42266879      22.37920057       8.2289612
O        4.66190939      36.38210075       8.2289612
O       -4.79252182      36.45750987      12.0360387
O      -16.29976879      44.53217379      12.0360387
O      -17.53900939      30.52927362      12.0360387
O      -20.96167818      37.88846165      10.4806279
O       -9.45443121      29.81379772      10.4806279
O       -8.21519061      43.81669790      10.4806279
O      -17.66962182      43.89210702       7.5327054
O      -16.29976879      29.66297949       7.5327054
O       -4.66190939      37.96387077       7.5327054
O        4.79252182      23.01926735      12.7322946
O        3.42266879      37.24839488      12.7322946
O       -8.21519061      28.94750360      12.7322946
O        8.08457818      29.02291271       9.7843720
O       -3.42266879      37.09757664       9.7843720
O       -4.66190939      23.09467646       9.7843720
O       -4.59152316      35.32235840       7.8189800
O       -2.54009811      22.97002801       7.8189800
O        7.13162128      30.92277941       7.8189800
O       -8.28557684      31.58901596      12.4460199
O      -10.33700189      43.94134635      12.4460199
O      -20.00872128      35.98859495      12.4460199
O      -17.46862316      42.75695555      10.0706467
O      -15.41719811      30.40462516      10.0706467
O       -5.74547872      38.35737656      10.0706467
O      -21.16267684      39.02361311       7.9426866
O      -10.33700189      29.07215205       7.9426866
O       -7.13162128      43.42319211       7.9426866
O        8.28557684      27.88776125      12.3223133
O       -2.54009811      37.83922231      12.3223133
O       -5.74547872      23.48818226      12.3223133
O        4.59152316      24.15441881      10.1943532
O        2.54009811      36.50674920      10.1943532
O       -7.13162128      28.55399780      10.1943532
C       -7.36290687      31.38730047       8.4785990
C        2.25345387      22.53746828       8.4785990
C        5.10945300      35.29039707       8.4785990
C       -5.51419313      35.52407389      11.7864009
C      -15.13055387      44.37390609      11.7864009
C      -17.98655300      31.62097730      11.7864009
C      -20.24000687      38.82189762      10.7302657
C      -10.62364613      29.97206543      10.7302657
C       -7.76764700      42.72499422      10.7302657
C      -18.39129313      42.95867104       7.2830676
C      -15.13055387      29.50471178       7.2830676
C       -5.10945300      39.05557445       7.2830676
C        5.51419313      23.95270332      12.9819323
C        2.25345387      37.40666258      12.9819323
C       -7.76764700      27.85579991      12.9819323
C        7.36290687      28.08947674       9.5347342
C       -2.25345387      36.93930893       9.5347342
C       -5.10945300      24.18638014       9.5347342
C       -6.80850908      32.41253885       7.5553256
C        1.08837249      22.50497165       7.5553256
C        5.72013659      34.29765531       7.5553256
C       -6.06859092      34.49883551      12.7096743
C      -13.96547249      44.40640271      12.7096743
C      -18.59723659      32.61371905      12.7096743
C      -19.68560908      39.84713601       9.8069923
C      -11.78872751      29.93956880       9.8069923
C       -7.15696341      41.73225246       9.8069923
C      -18.94569092      41.93343266       8.2063410
C      -13.96547249      29.53720841       8.2063410
C       -5.72013659      40.04831621       8.2063410
C        6.06859092      24.97794170      12.0586589
C        1.08837249      37.37416596      12.0586589
C       -7.15696341      26.86305816      12.0586589
C        6.80850908      27.06423836      10.4580076
C       -1.08837249      36.97180556      10.4580076
C       -5.72013659      25.17912190      10.4580076
C       -5.54551024      34.54270707       7.2892934
C       -1.38790672      22.53367663       7.2892934
C        6.93341695      32.13878212       7.2892934
C       -7.33158976      32.36866730      12.9757065
C      -11.48919328      44.37769773      12.9757065
C      -19.81051695      34.77259224      12.9757065
C      -18.42261024      41.97730422       9.5409601
C      -14.26500672      29.96827378       9.5409601
C       -5.94368305      39.57337927       9.5409601
C      -20.20868976      39.80326445       8.4723731
C      -11.48919328      29.50850343       8.4723731
C       -6.93341695      42.20718940       8.4723731
C        7.33158976      27.10810991      11.7926268
C       -1.38790672      37.40287094      11.7926268
C       -5.94368305      24.70418497      11.7926268
C        5.54551024      24.93407015      10.7240398
C        1.38790672      36.94310058      10.7240398
C       -6.93341695      27.33799509      10.7240398
C       -5.95477023      33.39531082       8.0693000
C       -0.18960242      22.75294521       8.0693000
C        6.14437265      33.06690979       8.0693000
C       -6.92232977      33.51606354      12.1956999
C      -12.68749758      44.15842916      12.1956999
C      -19.02147265      33.84446457      12.1956999
C      -18.83187023      40.82990797      10.3209667
C      -13.06670242      30.18754236      10.3209667
C       -6.73272735      40.50150694      10.3209667
C      -19.79942977      40.95066070       7.6923665
C      -12.68749758      29.28923485       7.6923665
C       -6.14437265      41.27906172       7.6923665
C        6.92232977      25.96071367      12.5726334
C       -0.18960242      37.62213951      12.5726334
C       -6.73272735      25.63231264      12.5726334
C        5.95477023      26.08146639       9.9440332
C        0.18960242      36.72383200       9.9440332
C       -6.14437265      26.40986742       9.9440332
H       -5.63038320      33.30500277       8.9683162
H       -0.27358687      23.07902664       8.9683162
H        5.90397007      32.83113641       8.9683162
H       -7.24671680      33.60637160      11.2966837
H      -12.60351313      43.83234772      11.2966837
H      -18.78107007      34.08023795      11.2966837
H      -18.50748320      40.73959992      11.2199829
H      -13.15068687      30.51362379      11.2199829
H       -6.97312993      40.26573356      11.2199829
H      -20.12381680      41.04096875       6.7933503
H      -12.60351313      28.96315342       6.7933503
H       -5.90397007      41.51483510       6.7933503
H        7.24671680      25.87040561      13.4716496
H       -0.27358687      37.94822094      13.4716496
H       -6.97312993      25.39653926      13.4716496
H        5.63038320      26.17177444       9.0450170
H        0.27358687      36.39775057       9.0450170
H       -5.90397007      26.64564080       9.0450170
Ne     -15.09196120      33.66088206       7.8898400
Ne      -8.72809838      37.01091154       7.8898400
Ne     -14.81124042      40.84716367       7.8898400
Ne       2.21486120      33.25049230      12.3751600
Ne      -4.14900162      29.90046282      12.3751600
Ne       1.93414042      26.06421069      12.3751600
Ne      -2.21486120      41.09547921      10.1415066
Ne     -21.60519838      44.44550869      10.1415066
Ne     -14.81124042      25.97796937      10.1415066
Ne     -10.66223880      40.68508945       7.8718266
Ne     -17.02610162      37.33505997       7.8718266
Ne     -10.94295958      33.49880784       7.8718266
Ne      -2.21486120      26.22628491      12.3931733
Ne       4.14900162      29.57631439      12.3931733
Ne      -1.93414042      33.41256652      12.3931733
Ne     -10.66223880      25.81589515      10.1234933
Ne       8.72809838      22.46586567      10.1234933
Ne       1.93414042      40.93340500      10.1234933
Ne     -12.87710000      22.30379145      10.1325000
Ne       0.00000000      29.73838861      12.3841666
Ne     -12.87710000      37.17298576       7.8808333
Ni      -5.28772357      36.75374882      15.8938395
Ni     -16.30871838      43.95519701      15.8938395
Ni     -17.03485805      30.81001144      15.8938395
Ni      -7.58937643      30.15762554      17.8811605
Ni       3.43161838      22.95617735      17.8811605
Ni       4.15775805      36.10136292      17.8811605
Ni     -18.16482357      44.18834597      18.1455061
Ni     -16.30871838      29.08600271      18.1455061
Ni      -4.15775805      38.24460859      18.1455061
Ni     -20.46647643      37.59222269      20.1328271
Ni      -9.44548162      30.39077451      20.1328271
Ni      -8.71934195      43.53596007      20.1328271
Ni       7.58937643      29.31915167      13.6421728
Ni      -3.43161838      36.52059986      13.6421728
Ni      -4.15775805      23.37541429      13.6421728
Ni       5.28772357      22.72302839      15.6294938
Ni       3.43161838      37.82537166      15.6294938
Ni      -8.71934195      28.66676577      15.62949383
O       -6.85059145      31.39731488      16.46224573
O        1.98862343      22.97613925      16.46224573
O        4.86196802      34.84171169      16.46224573
O       -6.02650855      35.51405949      17.31275427
O      -14.86572343      43.93523511      17.31275427
O      -17.73906802      32.06966267      17.31275427
O      -19.72769145      38.83191203      18.71391240
O      -10.88847657      30.41073640      18.71391240
O       -8.01513198      42.27630884      18.71391240
O      -18.90360855      42.94865664      19.56442094
O      -14.86572343      29.06604081      19.56442094
O       -4.86196802      39.50425982      19.56442094
O        6.02650855      23.96271772      14.21057906
O        1.98862343      37.84533355      14.21057906
O       -8.01513198      27.40711454      14.21057906
O        6.85059145      28.07946234      15.06108760
O       -1.98862343      36.50063796      15.06108760
O       -4.86196802      24.63506552      15.06108760
O       -8.08457818      30.45386450      14.98396126
O        3.42266879      22.37920057      14.98396126
O        4.66190939      36.38210075      14.98396126
O       -4.79252182      36.45750987      18.79103874
O      -16.29976879      44.53217379      18.79103874
O      -17.53900939      30.52927362      18.79103874
O      -20.96167818      37.88846165      17.23562793
O       -9.45443121      29.81379772      17.23562793
O       -8.21519061      43.81669790      17.23562793
O      -17.66962182      43.89210702      14.28770540
O      -16.29976879      29.66297949      14.28770540
O       -4.66190939      37.96387077      14.28770540
O        4.79252182      23.01926735      19.48729460
O        3.42266879      37.24839488      19.48729460
O       -8.21519061      28.94750360      19.48729460
O        8.08457818      29.02291271      16.53937207
O       -3.42266879      37.09757664      16.53937207
O       -4.66190939      23.09467646      16.53937207
O       -4.59152316      35.32235840      14.57398005
O       -2.54009811      22.97002801      14.57398005
O        7.13162128      30.92277941      14.57398005
O       -8.28557684      31.58901596      19.20101995
O      -10.33700189      43.94134635      19.20101995
O      -20.00872128      35.98859495      19.20101995
O      -17.46862316      42.75695555      16.82564672
O      -15.41719811      30.40462516      16.82564672
O       -5.74547872      38.35737656      16.82564672
O      -21.16267684      39.02361311      14.69768662
O      -10.33700189      29.07215205      14.69768662
O       -7.13162128      43.42319211      14.69768662
O        8.28557684      27.88776125      19.07731338
O       -2.54009811      37.83922231      19.07731338
O       -5.74547872      23.48818226      19.07731338
O        4.59152316      24.15441881      16.94935328
O        2.54009811      36.50674920      16.94935328
O       -7.13162128      28.55399780      16.94935328
C       -7.36290687      31.38730047      15.23359905
C        2.25345387      22.53746828      15.23359905
C        5.10945300      35.29039707      15.23359905
C       -5.51419313      35.52407389      18.54140096
C      -15.13055387      44.37390609      18.54140096
C      -17.98655300      31.62097730      18.54140096
C      -20.24000687      38.82189762      17.48526571
C      -10.62364613      29.97206543      17.48526571
C       -7.76764700      42.72499422      17.48526571
C      -18.39129313      42.95867104      14.03806762
C      -15.13055387      29.50471178      14.03806762
C       -5.10945300      39.05557445      14.03806762
C        5.51419313      23.95270332      19.73693238
C        2.25345387      37.40666258      19.73693238
C       -7.76764700      27.85579991      19.73693238
C        7.36290687      28.08947674      16.28973429
C       -2.25345387      36.93930893      16.28973429
C       -5.10945300      24.18638014      16.28973429
C       -6.80850908      32.41253885      14.31032565
C        1.08837249      22.50497165      14.31032565
C        5.72013659      34.29765531      14.31032565
C       -6.06859092      34.49883551      19.46467435
C      -13.96547249      44.40640271      19.46467435
C      -18.59723659      32.61371905      19.46467435
C      -19.68560908      39.84713601      16.56199231
C      -11.78872751      29.93956880      16.56199231
C       -7.15696341      41.73225246      16.56199231
C      -18.94569092      41.93343266      14.96134102
C      -13.96547249      29.53720841      14.96134102
C       -5.72013659      40.04831621      14.96134102
C        6.06859092      24.97794170      18.81365898
C        1.08837249      37.37416596      18.81365898
C       -7.15696341      26.86305816      18.81365898
C        6.80850908      27.06423836      17.21300769
C       -1.08837249      36.97180556      17.21300769
C       -5.72013659      25.17912190      17.21300769
C       -5.54551024      34.54270707      14.04429348
C       -1.38790672      22.53367663      14.04429348
C        6.93341695      32.13878212      14.04429348
C       -7.33158976      32.36866730      19.73070652
C      -11.48919328      44.37769773      19.73070652
C      -19.81051695      34.77259224      19.73070652
C      -18.42261024      41.97730422      16.29596015
C      -14.26500672      29.96827378      16.29596015
C       -5.94368305      39.57337927      16.29596015
C      -20.20868976      39.80326445      15.22737319
C      -11.48919328      29.50850343      15.22737319
C       -6.93341695      42.20718940      15.22737319
C        7.33158976      27.10810991      18.54762681
C       -1.38790672      37.40287094      18.54762681
C       -5.94368305      24.70418497      18.54762681
C        5.54551024      24.93407015      17.47903985
C        1.38790672      36.94310058      17.47903985
C       -6.93341695      27.33799509      17.47903985
C       -5.95477023      33.39531082      14.82430009
C       -0.18960242      22.75294521      14.82430009
C        6.14437265      33.06690979      14.82430009
C       -6.92232977      33.51606354      18.95069992
C      -12.68749758      44.15842916      18.95069992
C      -19.02147265      33.84446457      18.95069992
C      -18.83187023      40.82990797      17.07596675
C      -13.06670242      30.18754236      17.07596675
C       -6.73272735      40.50150694      17.07596675
C      -19.79942977      40.95066070      14.44736658
C      -12.68749758      29.28923485      14.44736658
C       -6.14437265      41.27906172      14.44736658
C        6.92232977      25.96071367      19.32763342
C       -0.18960242      37.62213951      19.32763342
C       -6.73272735      25.63231264      19.32763342
C        5.95477023      26.08146639      16.69903325
C        0.18960242      36.72383200      16.69903325
C       -6.14437265      26.40986742      16.69903325
H       -5.63038320      33.30500277      15.72331628
H       -0.27358687      23.07902664      15.72331628
H        5.90397007      32.83113641      15.72331628
H       -7.24671680      33.60637160      18.05168372
H      -12.60351313      43.83234772      18.05168372
H      -18.78107007      34.08023795      18.05168372
H      -18.50748320      40.73959992      17.97498295
H      -13.15068687      30.51362379      17.97498295
H       -6.97312993      40.26573356      17.97498295
H      -20.12381680      41.04096875      13.54835039
H      -12.60351313      28.96315342      13.54835039
H       -5.90397007      41.51483510      13.54835039
H        7.24671680      25.87040561      20.22664961
H       -0.27358687      37.94822094      20.22664961
H       -6.97312993      25.39653926      20.22664961
H        5.63038320      26.17177444      15.80001705
H        0.27358687      36.39775057      15.80001705
H       -5.90397007      26.64564080      15.80001705
Ne     -15.09196120      33.66088206      14.64484000
Ne      -8.72809838      37.01091154      14.64484000
Ne     -14.81124042      40.84716367      14.64484000
Ne       2.21486120      33.25049230      19.13016000
Ne      -4.14900162      29.90046282      19.13016000
Ne       1.93414042      26.06421069      19.13016000
Ne      -2.21486120      41.09547921      16.89650667
Ne     -21.60519838      44.44550869      16.89650667
Ne     -14.81124042      25.97796937      16.89650667
Ne     -10.66223880      40.68508945      14.62682667
Ne     -17.02610162      37.33505997      14.62682667
Ne     -10.94295958      33.49880784      14.62682667
Ne      -2.21486120      26.22628491      19.14817333
Ne       4.14900162      29.57631439      19.14817333
Ne      -1.93414042      33.41256652      19.14817333
Ne     -10.66223880      25.81589515      16.87849333
Ne       8.72809838      22.46586567      16.87849333
Ne       1.93414042      40.93340500      16.87849333
Ne     -12.87710000      22.30379145      16.88750000
Ne       0.00000000      29.73838861      19.13916667
Ne     -12.87710000      37.17298576      14.63583333
Ni     -18.16482357      59.05754028       2.38383950
Ni     -29.18581838      66.25898846       2.38383950
Ni     -29.91195805      53.11380289       2.38383950
Ni     -20.46647643      52.46141699       4.37116050
Ni      -9.44548162      45.25996881       4.37116050
Ni      -8.71934195      58.40515438       4.37116050
Ni     -31.04192357      66.49213743       4.63550617
Ni     -29.18581838      51.38979416       4.63550617
Ni     -17.03485805      60.54840004       4.63550617
Ni     -33.34357643      59.89601414       6.62282717
Ni     -22.32258162      52.69456596       6.62282717
Ni     -21.59644195      65.83975153       6.62282717
Ni      -5.28772357      51.62294313       0.13217283
Ni     -16.30871838      58.82439131       0.13217283
Ni     -17.03485805      45.67920574       0.13217283
Ni      -7.58937643      45.02681984       2.11949383
Ni      -9.44548162      60.12916311       2.11949383
Ni     -21.59644195      50.97055723       2.11949383
O      -19.72769145      53.70110633       2.95224573
O      -10.88847657      45.27993070       2.95224573
O       -8.01513198      57.14550315       2.95224573
O      -18.90360855      57.81785094       3.80275427
O      -27.74282343      66.23902657       3.80275427
O      -30.61616802      54.37345412       3.80275427
O      -32.60479145      61.13570348       5.20391240
O      -23.76557657      52.71452785       5.20391240
O      -20.89223198      64.58010030       5.20391240
O      -31.78070855      65.25244809       6.05442094
O      -27.74282343      51.36983227       6.05442094
O      -17.73906802      61.80805127       6.05442094
O       -6.85059145      46.26650918       0.70057906
O      -10.88847657      60.14912500       0.70057906
O      -20.89223198      49.71090600       0.70057906
O       -6.02650855      50.38325379       1.55108760
O      -14.86572343      58.80442942       1.55108760
O      -17.73906802      46.93885697       1.55108760
O      -20.96167818      52.75765595       1.47396127
O       -9.45443121      44.68299203       1.47396127
O       -8.21519061      58.68589220       1.47396127
O      -17.66962182      58.76130132       5.28103874
O      -29.17686879      66.83596524       5.28103874
O      -30.41610939      52.83306507       5.28103874
O      -33.83877818      60.19225310       3.72562793
O      -22.33153121      52.11758918       3.72562793
O      -21.09229061      66.12048935       3.72562793
O      -30.54672182      66.19589847       0.77770540
O      -29.17686879      51.96677094       0.77770540
O      -17.53900939      60.26766222       0.77770540
O       -8.08457818      45.32305880       5.97729460
O       -9.45443121      59.55218633       5.97729460
O      -21.09229061      51.25129505       5.97729460
O       -4.79252182      51.32670417       3.02937207
O      -16.29976879      59.40136809       3.02937207
O      -17.53900939      45.39846792       3.02937207
O      -17.46862316      57.62614985       1.06398005
O      -15.41719811      45.27381946       1.06398005
O       -5.74547872      53.22657086       1.06398005
O      -21.16267684      53.89280742       5.69101995
O      -23.21410189      66.24513781       5.69101995
O      -32.88582128      58.29238641       5.69101995
O      -30.34572316      65.06074700       3.31564672
O      -28.29429811      52.70841661       3.31564672
O      -18.62257872      60.66116801       3.31564672
O      -34.03977684      61.32740457       1.18768662
O      -23.21410189      51.37594351       1.18768662
O      -20.00872128      65.72698356       1.18768662
O       -4.59152316      50.19155270       5.56731338
O      -15.41719811      60.14301377       5.56731338
O      -18.62257872      45.79197371       5.56731338
O       -8.28557684      46.45821027       3.43935328
O      -10.33700189      58.81054066       3.43935328
O      -20.00872128      50.85778926       3.43935328
C      -20.24000687      53.69109193       1.72359905
C      -10.62364613      44.84125973       1.72359905
C       -7.76764700      57.59418852       1.72359905
C      -18.39129313      57.82786534       5.03140095
C      -28.00765387      66.67769754       5.03140095
C      -30.86365300      53.92476875       5.03140095
C      -33.11710687      61.12568908       3.97526571
C      -23.50074613      52.27585688       3.97526571
C      -20.64474700      65.02878567       3.97526571
C      -31.26839313      65.26246249       0.52806762
C      -28.00765387      51.80850324       0.52806762
C      -17.98655300      61.35936590       0.52806762
C       -7.36290687      46.25649478       6.22693238
C      -10.62364613      59.71045403       6.22693238
C      -20.64474700      50.15959137       6.22693238
C       -5.51419313      50.39326819       2.77973429
C      -15.13055387      59.24310039       2.77973429
C      -17.98655300      46.49017160       2.77973429
C      -19.68560908      54.71633031       0.80032565
C      -11.78872751      44.80876311       0.80032565
C       -7.15696341      56.60144676       0.80032565
C      -18.94569092      56.80262696       5.95467435
C      -26.84257249      66.71019416       5.95467435
C      -31.47433659      54.91751051       5.95467435
C      -32.56270908      62.15092746       3.05199231
C      -24.66582751      52.24336026       3.05199231
C      -20.03406341      64.03604391       3.05199231
C      -31.82279092      64.23722411       1.45134102
C      -26.84257249      51.84099986       1.45134102
C      -18.59723659      62.35210766       1.45134102
C       -6.80850908      47.28173316       5.30365898
C      -11.78872751      59.67795741       5.30365898
C      -20.03406341      49.16684961       5.30365898
C       -6.06859092      49.36802981       3.70300769
C      -13.96547249      59.27559701       3.70300769
C      -18.59723659      47.48291336       3.70300769
C      -18.42261024      56.84649852       0.53429348
C      -14.26500672      44.83746809       0.53429348
C       -5.94368305      54.44257357       0.53429348
C      -20.20868976      54.67245875       6.22070652
C      -24.36629328      66.68148918       6.22070652
C      -32.68761695      57.07638370       6.22070652
C      -31.29971024      64.28109567       2.78596015
C      -27.14210672      52.27206524       2.78596015
C      -18.82078305      61.87717072       2.78596015
C      -33.08578976      62.10705590       1.71737319
C      -24.36629328      51.81229488       1.71737319
C      -19.81051695      64.51098085       1.71737319
C       -5.54551024      49.41190137       5.03762681
C      -14.26500672      59.70666239       5.03762681
C      -18.82078305      47.00797642       5.03762681
C       -7.33158976      47.23786160       3.96903985
C      -11.48919328      59.24689203       3.96903985
C      -19.81051695      49.64178655       3.96903985
C      -18.83187023      55.69910227       1.31430009
C      -13.06670242      45.05673666       1.31430009
C       -6.73272735      55.37070125       1.31430009
C      -19.79942977      55.81985500       5.44069991
C      -25.56459758      66.46222061       5.44069991
C      -31.89857265      56.14825602       5.44069991
C      -31.70897023      63.13369942       3.56596675
C      -25.94380242      52.49133381       3.56596675
C      -19.60982735      62.80529840       3.56596675
C      -32.67652977      63.25445215       0.93736658
C      -25.56459758      51.59302631       0.93736658
C      -19.02147265      63.58285318       0.93736658
C       -5.95477023      48.26450512       5.81763342
C      -13.06670242      59.92593096       5.81763342
C      -19.60982735      47.93610410       5.81763342
C       -6.92232977      48.38525785       3.18903325
C      -12.68749758      59.02762346       3.18903325
C      -19.02147265      48.71365887       3.18903325
H      -18.50748320      55.60879422       2.21331628
H      -13.15068687      45.38281809       2.21331628
H       -6.97312993      55.13492787       2.21331628
H      -20.12381680      55.91016305       4.54168372
H      -25.48061313      66.13613918       4.54168372
H      -31.65817007      56.38402940       4.54168372
H      -31.38458320      63.04339137       4.46498295
H      -26.02778687      52.81741524       4.46498295
H      -19.85022993      62.56952502       4.46498295
H      -33.00091680      63.34476020       0.03835039
H      -25.48061313      51.26694488       0.03835039
H      -18.78107007      63.81862656       0.03835039
H       -5.63038320      48.17419707       6.71664961
H      -13.15068687      60.25201239       6.71664961
H      -19.85022993      47.70033072       6.71664961
H       -7.24671680      48.47556590       2.29001705
H      -12.60351313      58.70154203       2.29001705
H      -18.78107007      48.94943225       2.29001705
Ne     -27.96906120      55.96467352       1.13484000
Ne     -21.60519838      59.31470299       1.13484000
Ne     -27.68834042      63.15095512       1.13484000
Ne     -10.66223880      55.55428375       5.62016000
Ne     -17.02610162      52.20425428       5.62016000
Ne     -10.94295958      48.36800215       5.62016000
Ne     -15.09196120      63.39927067       3.38650667
Ne     -34.48229838      66.74930014       3.38650667
Ne     -27.68834042      48.28176082       3.38650667
Ne     -23.53933880      62.98888091       1.11682667
Ne     -29.90320162      59.63885143       1.11682667
Ne     -23.82005958      55.80259930       1.11682667
Ne     -15.09196120      48.53007637       5.63817333
Ne      -8.72809838      51.88010584       5.63817333
Ne     -14.81124042      55.71635797       5.63817333
Ne     -23.53933880      48.11968660       3.36849333
Ne      -4.14900162      44.76965713       3.36849333
Ne     -10.94295958      63.23719645       3.36849333
Ne     -25.75420000      44.60758291       3.37750000
Ne     -12.87710000      52.04218006       5.62916667
Ne     -25.75420000      59.47677721       1.12583333
Ni     -18.16482357      59.05754028       9.13883950
Ni     -29.18581838      66.25898846       9.13883950
Ni     -29.91195805      53.11380289       9.13883950
Ni     -20.46647643      52.46141699      11.12616050
Ni      -9.44548162      45.25996881      11.12616050
Ni      -8.71934195      58.40515438      11.12616050
Ni     -31.04192357      66.49213743      11.39050617
Ni     -29.18581838      51.38979416      11.39050617
Ni     -17.03485805      60.54840004      11.39050617
Ni     -33.34357643      59.89601414      13.37782717
Ni     -22.32258162      52.69456596      13.37782717
Ni     -21.59644195      65.83975153      13.37782717
Ni      -5.28772357      51.62294313       6.88717283
Ni     -16.30871838      58.82439131       6.88717283
Ni     -17.03485805      45.67920574       6.88717283
Ni      -7.58937643      45.02681984       8.87449383
Ni      -9.44548162      60.12916311       8.87449383
Ni     -21.59644195      50.97055723       8.87449383
O      -19.72769145      53.70110633       9.70724573
O      -10.88847657      45.27993070       9.70724573
O       -8.01513198      57.14550315       9.70724573
O      -18.90360855      57.81785094      10.55775427
O      -27.74282343      66.23902657      10.55775427
O      -30.61616802      54.37345412      10.55775427
O      -32.60479145      61.13570348      11.95891240
O      -23.76557657      52.71452785      11.95891240
O      -20.89223198      64.58010030      11.95891240
O      -31.78070855      65.25244809      12.80942094
O      -27.74282343      51.36983227      12.80942094
O      -17.73906802      61.80805127      12.80942094
O       -6.85059145      46.26650918       7.45557906
O      -10.88847657      60.14912500       7.45557906
O      -20.89223198      49.71090600       7.45557906
O       -6.02650855      50.38325379       8.30608760
O      -14.86572343      58.80442942       8.30608760
O      -17.73906802      46.93885697       8.30608760
O      -20.96167818      52.75765595       8.22896127
O       -9.45443121      44.68299203       8.22896127
O       -8.21519061      58.68589220       8.22896127
O      -17.66962182      58.76130132      12.03603873
O      -29.17686879      66.83596524      12.03603873
O      -30.41610939      52.83306507      12.03603873
O      -33.83877818      60.19225310      10.48062793
O      -22.33153121      52.11758918      10.48062793
O      -21.09229061      66.12048935      10.48062793
O      -30.54672182      66.19589847       7.53270540
O      -29.17686879      51.96677094       7.53270540
O      -17.53900939      60.26766222       7.53270540
O       -8.08457818      45.32305880      12.73229460
O       -9.45443121      59.55218633      12.73229460
O      -21.09229061      51.25129505      12.73229460
O       -4.79252182      51.32670417       9.78437207
O      -16.29976879      59.40136809       9.78437207
O      -17.53900939      45.39846792       9.78437207
O      -17.46862316      57.62614985       7.81898005
O      -15.41719811      45.27381946       7.81898005
O       -5.74547872      53.22657086       7.81898005
O      -21.16267684      53.89280742      12.44601995
O      -23.21410189      66.24513781      12.44601995
O      -32.88582128      58.29238641      12.44601995
O      -30.34572316      65.06074700      10.07064672
O      -28.29429811      52.70841661      10.07064672
O      -18.62257872      60.66116801      10.07064672
O      -34.03977684      61.32740457       7.94268662
O      -23.21410189      51.37594351       7.94268662
O      -20.00872128      65.72698356       7.94268662
O       -4.59152316      50.19155270      12.32231338
O      -15.41719811      60.14301377      12.32231338
O      -18.62257872      45.79197371      12.32231338
O       -8.28557684      46.45821027      10.19435328
O      -10.33700189      58.81054066      10.19435328
O      -20.00872128      50.85778926      10.19435328
C      -20.24000687      53.69109193       8.47859904
C      -10.62364613      44.84125973       8.47859904
C       -7.76764700      57.59418852       8.47859904
C      -18.39129313      57.82786534      11.78640095
C      -28.00765387      66.67769754      11.78640095
C      -30.86365300      53.92476875      11.78640095
C      -33.11710687      61.12568908      10.73026571
C      -23.50074613      52.27585688      10.73026571
C      -20.64474700      65.02878567      10.73026571
C      -31.26839313      65.26246249       7.28306762
C      -28.00765387      51.80850324       7.28306762
C      -17.98655300      61.35936590       7.28306762
C       -7.36290687      46.25649478      12.98193238
C      -10.62364613      59.71045403      12.98193238
C      -20.64474700      50.15959137      12.98193238
C       -5.51419313      50.39326819       9.53473429
C      -15.13055387      59.24310039       9.53473429
C      -17.98655300      46.49017160       9.53473429
C      -19.68560908      54.71633031       7.55532564
C      -11.78872751      44.80876311       7.55532564
C       -7.15696341      56.60144676       7.55532564
C      -18.94569092      56.80262696      12.70967436
C      -26.84257249      66.71019416      12.70967436
C      -31.47433659      54.91751051      12.70967436
C      -32.56270908      62.15092746       9.80699231
C      -24.66582751      52.24336026       9.80699231
C      -20.03406341      64.03604391       9.80699231
C      -31.82279092      64.23722411       8.20634102
C      -26.84257249      51.84099986       8.20634102
C      -18.59723659      62.35210766       8.20634102
C       -6.80850908      47.28173316      12.05865898
C      -11.78872751      59.67795741      12.05865898
C      -20.03406341      49.16684961      12.05865898
C       -6.06859092      49.36802981      10.45800769
C      -13.96547249      59.27559701      10.45800769
C      -18.59723659      47.48291336      10.45800769
C      -18.42261024      56.84649852       7.28929348
C      -14.26500672      44.83746809       7.28929348
C       -5.94368305      54.44257357       7.28929348
C      -20.20868976      54.67245875      12.97570652
C      -24.36629328      66.68148918      12.97570652
C      -32.68761695      57.07638370      12.97570652
C      -31.29971024      64.28109567       9.54096015
C      -27.14210672      52.27206524       9.54096015
C      -18.82078305      61.87717072       9.54096015
C      -33.08578976      62.10705590       8.47237319
C      -24.36629328      51.81229488       8.47237319
C      -19.81051695      64.51098085       8.47237319
C       -5.54551024      49.41190137      11.79262681
C      -14.26500672      59.70666239      11.79262681
C      -18.82078305      47.00797642      11.79262681
C       -7.33158976      47.23786160      10.72403985
C      -11.48919328      59.24689203      10.72403985
C      -19.81051695      49.64178655      10.72403985
C      -18.83187023      55.69910227       8.06930009
C      -13.06670242      45.05673666       8.06930009
C       -6.73272735      55.37070125       8.06930009
C      -19.79942977      55.81985500      12.19569991
C      -25.56459758      66.46222061      12.19569991
C      -31.89857265      56.14825602      12.19569991
C      -31.70897023      63.13369942      10.32096675
C      -25.94380242      52.49133381      10.32096675
C      -19.60982735      62.80529840      10.32096675
C      -32.67652977      63.25445215       7.69236658
C      -25.56459758      51.59302631       7.69236658
C      -19.02147265      63.58285318       7.69236658
C       -5.95477023      48.26450512      12.57263342
C      -13.06670242      59.92593096      12.57263342
C      -19.60982735      47.93610410      12.57263342
C       -6.92232977      48.38525785       9.94403325
C      -12.68749758      59.02762346       9.94403325
C      -19.02147265      48.71365887       9.94403325
H      -18.50748320      55.60879422       8.96831628
H      -13.15068687      45.38281809       8.96831628
H       -6.97312993      55.13492787       8.96831628
H      -20.12381680      55.91016305      11.29668372
H      -25.48061313      66.13613918      11.29668372
H      -31.65817007      56.38402940      11.29668372
H      -31.38458320      63.04339137      11.21998295
H      -26.02778687      52.81741524      11.21998295
H      -19.85022993      62.56952502      11.21998295
H      -33.00091680      63.34476020       6.79335039
H      -25.48061313      51.26694488       6.79335039
H      -18.78107007      63.81862656       6.79335039
H       -5.63038320      48.17419707      13.47164961
H      -13.15068687      60.25201239      13.47164961
H      -19.85022993      47.70033072      13.47164961
H       -7.24671680      48.47556590       9.04501705
H      -12.60351313      58.70154203       9.04501705
H      -18.78107007      48.94943225       9.04501705
Ne     -27.96906120      55.96467352       7.88984000
Ne     -21.60519838      59.31470299       7.88984000
Ne     -27.68834042      63.15095512       7.88984000
Ne     -10.66223880      55.55428375      12.37516000
Ne     -17.02610162      52.20425428      12.37516000
Ne     -10.94295958      48.36800215      12.37516000
Ne     -15.09196120      63.39927067      10.14150667
Ne     -34.48229838      66.74930014      10.14150667
Ne     -27.68834042      48.28176082      10.14150667
Ne     -23.53933880      62.98888091       7.87182667
Ne     -29.90320162      59.63885143       7.87182667
Ne     -23.82005958      55.80259930       7.87182667
Ne     -15.09196120      48.53007637      12.39317333
Ne      -8.72809838      51.88010584      12.39317333
Ne     -14.81124042      55.71635797      12.39317333
Ne     -23.53933880      48.11968660      10.12349333
Ne      -4.14900162      44.76965713      10.12349333
Ne     -10.94295958      63.23719645      10.12349333
Ne     -25.75420000      44.60758291      10.13250000
Ne     -12.87710000      52.04218006      12.38416667
Ne     -25.75420000      59.47677721       7.88083333
Ni     -18.16482357      59.05754028      15.89383950
Ni     -29.18581838      66.25898846      15.89383950
Ni     -29.91195805      53.11380289      15.89383950
Ni     -20.46647643      52.46141699      17.88116050
Ni      -9.44548162      45.25996881      17.88116050
Ni      -8.71934195      58.40515438      17.88116050
Ni     -31.04192357      66.49213743      18.14550617
Ni     -29.18581838      51.38979416      18.14550617
Ni     -17.03485805      60.54840004      18.14550617
Ni     -33.34357643      59.89601414      20.13282717
Ni     -22.32258162      52.69456596      20.13282717
Ni     -21.59644195      65.83975153      20.13282717
Ni      -5.28772357      51.62294313      13.64217283
Ni     -16.30871838      58.82439131      13.64217283
Ni     -17.03485805      45.67920574      13.64217283
Ni      -7.58937643      45.02681984      15.62949383
Ni      -9.44548162      60.12916311      15.62949383
Ni     -21.59644195      50.97055723      15.62949383
O      -19.72769145      53.70110633      16.46224573
O      -10.88847657      45.27993070      16.46224573
O       -8.01513198      57.14550315      16.46224573
O      -18.90360855      57.81785094      17.31275427
O      -27.74282343      66.23902657      17.31275427
O      -30.61616802      54.37345412      17.31275427
O      -32.60479145      61.13570348      18.71391240
O      -23.76557657      52.71452785      18.71391240
O      -20.89223198      64.58010030      18.71391240
O      -31.78070855      65.25244809      19.56442094
O      -27.74282343      51.36983227      19.56442094
O      -17.73906802      61.80805127      19.56442094
O       -6.85059145      46.26650918      14.21057906
O      -10.88847657      60.14912500      14.21057906
O      -20.89223198      49.71090600      14.21057906
O       -6.02650855      50.38325379      15.06108760
O      -14.86572343      58.80442942      15.06108760
O      -17.73906802      46.93885697      15.06108760
O      -20.96167818      52.75765595      14.98396126
O       -9.45443121      44.68299203      14.98396126
O       -8.21519061      58.68589220      14.98396126
O      -17.66962182      58.76130132      18.79103874
O      -29.17686879      66.83596524      18.79103874
O      -30.41610939      52.83306507      18.79103874
O      -33.83877818      60.19225310      17.23562793
O      -22.33153121      52.11758918      17.23562793
O      -21.09229061      66.12048935      17.23562793
O      -30.54672182      66.19589847      14.28770540
O      -29.17686879      51.96677094      14.28770540
O      -17.53900939      60.26766222      14.28770540
O       -8.08457818      45.32305880      19.48729460
O       -9.45443121      59.55218633      19.48729460
O      -21.09229061      51.25129505      19.48729460
O       -4.79252182      51.32670417      16.53937207
O      -16.29976879      59.40136809      16.53937207
O      -17.53900939      45.39846792      16.53937207
O      -17.46862316      57.62614985      14.57398005
O      -15.41719811      45.27381946      14.57398005
O       -5.74547872      53.22657086      14.57398005
O      -21.16267684      53.89280742      19.20101995
O      -23.21410189      66.24513781      19.20101995
O      -32.88582128      58.29238641      19.20101995
O      -30.34572316      65.06074700      16.82564672
O      -28.29429811      52.70841661      16.82564672
O      -18.62257872      60.66116801      16.82564672
O      -34.03977684      61.32740457      14.69768662
O      -23.21410189      51.37594351      14.69768662
O      -20.00872128      65.72698356      14.69768662
O       -4.59152316      50.19155270      19.07731338
O      -15.41719811      60.14301377      19.07731338
O      -18.62257872      45.79197371      19.07731338
O       -8.28557684      46.45821027      16.94935328
O      -10.33700189      58.81054066      16.94935328
O      -20.00872128      50.85778926      16.94935328
C      -20.24000687      53.69109193      15.23359905
C      -10.62364613      44.84125973      15.23359905
C       -7.76764700      57.59418852      15.23359905
C      -18.39129313      57.82786534      18.54140096
C      -28.00765387      66.67769754      18.54140096
C      -30.86365300      53.92476875      18.54140096
C      -33.11710687      61.12568908      17.48526571
C      -23.50074613      52.27585688      17.48526571
C      -20.64474700      65.02878567      17.48526571
C      -31.26839313      65.26246249      14.03806762
C      -28.00765387      51.80850324      14.03806762
C      -17.98655300      61.35936590      14.03806762
C       -7.36290687      46.25649478      19.73693238
C      -10.62364613      59.71045403      19.73693238
C      -20.64474700      50.15959137      19.73693238
C       -5.51419313      50.39326819      16.28973429
C      -15.13055387      59.24310039      16.28973429
C      -17.98655300      46.49017160      16.28973429
C      -19.68560908      54.71633031      14.31032565
C      -11.78872751      44.80876311      14.31032565
C       -7.15696341      56.60144676      14.31032565
C      -18.94569092      56.80262696      19.46467435
C      -26.84257249      66.71019416      19.46467435
C      -31.47433659      54.91751051      19.46467435
C      -32.56270908      62.15092746      16.56199231
C      -24.66582751      52.24336026      16.56199231
C      -20.03406341      64.03604391      16.56199231
C      -31.82279092      64.23722411      14.96134102
C      -26.84257249      51.84099986      14.96134102
C      -18.59723659      62.35210766      14.96134102
C       -6.80850908      47.28173316      18.81365898
C      -11.78872751      59.67795741      18.81365898
C      -20.03406341      49.16684961      18.81365898
C       -6.06859092      49.36802981      17.21300769
C      -13.96547249      59.27559701      17.21300769
C      -18.59723659      47.48291336      17.21300769
C      -18.42261024      56.84649852      14.04429348
C      -14.26500672      44.83746809      14.04429348
C       -5.94368305      54.44257357      14.04429348
C      -20.20868976      54.67245875      19.73070652
C      -24.36629328      66.68148918      19.73070652
C      -32.68761695      57.07638370      19.73070652
C      -31.29971024      64.28109567      16.29596015
C      -27.14210672      52.27206524      16.29596015
C      -18.82078305      61.87717072      16.29596015
C      -33.08578976      62.10705590      15.22737319
C      -24.36629328      51.81229488      15.22737319
C      -19.81051695      64.51098085      15.22737319
C       -5.54551024      49.41190137      18.54762681
C      -14.26500672      59.70666239      18.54762681
C      -18.82078305      47.00797642      18.54762681
C       -7.33158976      47.23786160      17.47903985
C      -11.48919328      59.24689203      17.47903985
C      -19.81051695      49.64178655      17.47903985
C      -18.83187023      55.69910227      14.82430009
C      -13.06670242      45.05673666      14.82430009
C       -6.73272735      55.37070125      14.82430009
C      -19.79942977      55.81985500      18.95069992
C      -25.56459758      66.46222061      18.95069992
C      -31.89857265      56.14825602      18.95069992
C      -31.70897023      63.13369942      17.07596675
C      -25.94380242      52.49133381      17.07596675
C      -19.60982735      62.80529840      17.07596675
C      -32.67652977      63.25445215      14.44736658
C      -25.56459758      51.59302631      14.44736658
C      -19.02147265      63.58285318      14.44736658
C       -5.95477023      48.26450512      19.32763342
C      -13.06670242      59.92593096      19.32763342
C      -19.60982735      47.93610410      19.32763342
C       -6.92232977      48.38525785      16.69903325
C      -12.68749758      59.02762346      16.69903325
C      -19.02147265      48.71365887      16.69903325
H      -18.50748320      55.60879422      15.72331628
H      -13.15068687      45.38281809      15.72331628
H       -6.97312993      55.13492787      15.72331628
H      -20.12381680      55.91016305      18.05168372
H      -25.48061313      66.13613918      18.05168372
H      -31.65817007      56.38402940      18.05168372
H      -31.38458320      63.04339137      17.97498295
H      -26.02778687      52.81741524      17.97498295
H      -19.85022993      62.56952502      17.97498295
H      -33.00091680      63.34476020      13.54835039
H      -25.48061313      51.26694488      13.54835039
H      -18.78107007      63.81862656      13.54835039
H       -5.63038320      48.17419707      20.22664961
H      -13.15068687      60.25201239      20.22664961
H      -19.85022993      47.70033072      20.22664961
H       -7.24671680      48.47556590      15.80001705
H      -12.60351313      58.70154203      15.80001705
H      -18.78107007      48.94943225      15.80001705
Ne     -27.96906120      55.96467352      14.64484000
Ne     -21.60519838      59.31470299      14.64484000
Ne     -27.68834042      63.15095512      14.64484000
Ne     -10.66223880      55.55428375      19.13016000
Ne     -17.02610162      52.20425428      19.13016000
Ne     -10.94295958      48.36800215      19.13016000
Ne     -15.09196120      63.39927067      16.89650667
Ne     -34.48229838      66.74930014      16.89650667
Ne     -27.68834042      48.28176082      16.89650667
Ne     -23.53933880      62.98888091      14.62682667
Ne     -29.90320162      59.63885143      14.62682667
Ne     -23.82005958      55.80259930      14.62682667
Ne     -15.09196120      48.53007637      19.14817333
Ne      -8.72809838      51.88010584      19.14817333
Ne     -14.81124042      55.71635797      19.14817333
Ne     -23.53933880      48.11968660      16.87849333
Ne      -4.14900162      44.76965713      16.87849333
Ne     -10.94295958      63.23719645      16.87849333
Ne     -25.75420000      44.60758291      16.88750000
Ne     -12.87710000      52.04218006      19.13916667
Ne     -25.75420000      59.47677721      14.63583333
Ni      33.34357643      14.44995737       2.38383950
Ni      22.32258162      21.65140555       2.38383950
Ni      21.59644195       8.50621998       2.38383950
Ni      31.04192357       7.85383408       4.37116050
Ni      42.06291838       0.65238590       4.37116050
Ni      42.78905805      13.79757147       4.37116050
Ni      20.46647643      21.88455452       4.63550617
Ni      22.32258162       6.78221125       4.63550617
Ni      34.47354195      15.94081714       4.63550617
Ni      18.16482357      15.28843124       6.62282717
Ni      29.18581838       8.08698305       6.62282717
Ni      29.91195805      21.23216862       6.62282717
Ni      46.22067643       7.01536022       0.13217283
Ni      35.19968162      14.21680840       0.13217283
Ni      34.47354195       1.07162283       0.13217283
Ni      43.91902357       0.41923693       2.11949383
Ni      42.06291838      15.52158020       2.11949383
Ni      29.91195805       6.36297432       2.11949383
O       31.78070855       9.09352342       2.95224573
O       40.61992343       0.67234779       2.95224573
O       43.49326802      12.53792024       2.95224573
O       32.60479145      13.21026803       3.80275427
O       23.76557657      21.63144366       3.80275427
O       20.89223198       9.76587121       3.80275427
O       18.90360855      16.52812057       5.20391240
O       27.74282343       8.10694494       5.20391240
O       30.61616802      19.97251739       5.20391240
O       19.72769145      20.64486518       6.05442094
O       23.76557657       6.76224936       6.05442094
O       33.76933198      17.20046837       6.05442094
O       44.65780855       1.65892627       0.70057906
O       40.61992343      15.54154210       0.70057906
O       30.61616802       5.10332309       0.70057906
O       45.48189145       5.77567088       1.55108760
O       36.64267657      14.19684651       1.55108760
O       33.76933198       2.33127406       1.55108760
O       30.54672182       8.15007304       1.47396127
O       42.05396879       0.07540912       1.47396127
O       43.29320939      14.07830929       1.47396127
O       33.83877818      14.15371841       5.28103874
O       22.33153121      22.22838234       5.28103874
O       21.09229061       8.22548216       5.28103874
O       17.66962182      15.58467019       3.72562793
O       29.17686879       7.51000627       3.72562793
O       30.41610939      21.51290644       3.72562793
O       20.96167818      21.58831556       0.77770540
O       22.33153121       7.35918803       0.77770540
O       33.96939061      15.66007931       0.77770540
O       43.42382182       0.71547589       5.97729460
O       42.05396879      14.94460342       5.97729460
O       30.41610939       6.64371214       5.97729460
O       46.71587818       6.71912126       3.02937207
O       35.20863121      14.79378518       3.02937207
O       33.96939061       0.79088501       3.02937207
O       34.03977684      13.01856695       1.06398005
O       36.09120189       0.66623655       1.06398005
O       45.76292128       8.61898795       1.06398005
O       30.34572316       9.28522451       5.69101995
O       28.29429811      21.63755490       5.69101995
O       18.62257872      13.68480350       5.69101995
O       21.16267684      20.45316410       3.31564672
O       23.21410189       8.10083371       3.31564672
O       32.88582128      16.05358511       3.31564672
O       17.46862316      16.71982166       1.18768662
O       28.29429811       6.76836060       1.18768662
O       31.49967872      21.11940065       1.18768662
O       46.91687684       5.58396979       5.56731338
O       36.09120189      15.53543086       5.56731338
O       32.88582128       1.18439080       5.56731338
O       43.22282316       1.85062736       3.43935328
O       41.17139811      14.20295775       3.43935328
O       31.49967872       6.25020635       3.43935328
C       31.26839313       9.08350902       1.72359905
C       40.88475387       0.23367682       1.72359905
C       43.74075300      12.98660561       1.72359905
C       33.11710687      13.22028244       5.03140095
C       23.50074613      22.07011463       5.03140095
C       20.64474700       9.31718584       5.03140095
C       18.39129313      16.51810617       3.97526571
C       28.00765387       7.66827397       3.97526571
C       30.86365300      20.42120276       3.97526571
C       20.24000687      20.65487959       0.52806762
C       23.50074613       7.20092033       0.52806762
C       33.52184700      16.75178299       0.52806762
C       44.14549313       1.64891187       6.22693238
C       40.88475387      15.10287113       6.22693238
C       30.86365300       5.55200846       6.22693238
C       45.99420687       5.78568528       2.77973429
C       36.37784613      14.63551748       2.77973429
C       33.52184700       1.88258869       2.77973429
C       31.82279092      10.10874740       0.80032565
C       39.71967249       0.20118020       0.80032565
C       44.35143659      11.99386385       0.80032565
C       32.56270908      12.19504405       5.95467435
C       24.66582751      22.10261126       5.95467435
C       20.03406341      10.30992760       5.95467435
C       18.94569092      17.54334455       3.05199231
C       26.84257249       7.63577735       3.05199231
C       31.47433659      19.42846101       3.05199231
C       19.68560908      19.62964120       1.45134102
C       24.66582751       7.23341695       1.45134102
C       32.91116341      17.74452475       1.45134102
C       44.69989092       2.67415025       5.30365898
C       39.71967249      15.07037450       5.30365898
C       31.47433659       4.55926670       5.30365898
C       45.43980908       4.76044690       3.70300769
C       37.54292751      14.66801410       3.70300769
C       32.91116341       2.87533045       3.70300769
C       33.08578976      12.23891561       0.53429348
C       37.24339328       0.22988518       0.53429348
C       45.56471695       9.83499066       0.53429348
C       31.29971024      10.06487584       6.22070652
C       27.14210672      22.07390628       6.22070652
C       18.82078305      12.46880079       6.22070652
C       20.20868976      19.67351276       2.78596015
C       24.36629328       7.66448233       2.78596015
C       32.68761695      17.26958782       2.78596015
C       18.42261024      17.49947299       1.71737319
C       27.14210672       7.20471197       1.71737319
C       31.69788305      19.90339794       1.71737319
C       45.96288976       4.80431846       5.03762681
C       37.24339328      15.09907948       5.03762681
C       32.68761695       2.40039351       5.03762681
C       44.17681024       2.63027869       3.96903985
C       40.01920672      14.63930912       3.96903985
C       31.69788305       5.03420364       3.96903985
C       32.67652977      11.09151936       1.31430009
C       38.44169758       0.44915375       1.31430009
C       44.77567265      10.76311834       1.31430009
C       31.70897023      11.21227209       5.44069991
C       25.94380242      21.85463770       5.44069991
C       19.60982735      11.54067312       5.44069991
C       19.79942977      18.52611651       3.56596675
C       25.56459758       7.88375090       3.56596675
C       31.89857265      18.19771549       3.56596675
C       18.83187023      18.64686924       0.93736658
C       25.94380242       6.98544340       0.93736658
C       32.48692735      18.97527027       0.93736658
C       45.55362977       3.65692221       5.81763342
C       38.44169758      15.31834806       5.81763342
C       31.89857265       3.32852119       5.81763342
C       44.58607023       3.77767494       3.18903325
C       38.82090242      14.42004055       3.18903325
C       32.48692735       4.10607596       3.18903325
H       33.00091680      11.00121131       2.21331628
H       38.35771313       0.77523518       2.21331628
H       44.53527007      10.52734496       2.21331628
H       31.38458320      11.30258014       4.54168372
H       26.02778687      21.52855627       4.54168372
H       19.85022993      11.77644650       4.54168372
H       20.12381680      18.43580846       4.46498295
H       25.48061313       8.20983233       4.46498295
H       31.65817007      17.96194211       4.46498295
H       18.50748320      18.73717729       0.03835039
H       26.02778687       6.65936197       0.03835039
H       32.72732993      19.21104365       0.03835039
H       45.87801680       3.56661416       6.71664961
H       38.35771313      15.64442949       6.71664961
H       31.65817007       3.09274781       6.71664961
H       44.26168320       3.86798299       2.29001705
H       38.90488687      14.09395912       2.29001705
H       32.72732993       4.34184934       2.29001705
Ne      23.53933880      11.35709061       1.13484000
Ne      29.90320162      14.70712008       1.13484000
Ne      23.82005958      18.54337221       1.13484000
Ne      40.84616120      10.94670085       5.62016000
Ne      34.48229838       7.59667137       5.62016000
Ne      40.56544042       3.76041924       5.62016000
Ne      36.41643880      18.79168776       3.38650667
Ne      17.02610162      22.14171724       3.38650667
Ne      23.82005958       3.67417791       3.38650667
Ne      27.96906120      18.38129800       1.11682667
Ne      21.60519838      15.03126852       1.11682667
Ne      27.68834042      11.19501639       1.11682667
Ne      36.41643880       3.92249346       5.63817333
Ne      42.78030162       7.27252293       5.63817333
Ne      36.69715958      11.10877506       5.63817333
Ne      27.96906120       3.51210369       3.36849333
Ne      47.35939838       0.16207422       3.36849333
Ne      40.56544042      18.62961354       3.36849333
Ne      25.75420000       0.00000000       3.37750000
Ne      38.63130000       7.43459715       5.62916667
Ne      25.75420000      14.86919430       1.12583333
Ni      33.34357643      14.44995737       9.13883950
Ni      22.32258162      21.65140555       9.13883950
Ni      21.59644195       8.50621998       9.13883950
Ni      31.04192357       7.85383408      11.12616050
Ni      42.06291838       0.65238590      11.12616050
Ni      42.78905805      13.79757147      11.12616050
Ni      20.46647643      21.88455452      11.39050617
Ni      22.32258162       6.78221125      11.39050617
Ni      34.47354195      15.94081714      11.39050617
Ni      18.16482357      15.28843124      13.37782717
Ni      29.18581838       8.08698305      13.37782717
Ni      29.91195805      21.23216862      13.37782717
Ni      46.22067643       7.01536022       6.88717283
Ni      35.19968162      14.21680840       6.88717283
Ni      34.47354195       1.07162283       6.88717283
Ni      43.91902357       0.41923693       8.87449383
Ni      42.06291838      15.52158020       8.87449383
Ni      29.91195805       6.36297432       8.87449383
O       31.78070855       9.09352342       9.70724573
O       40.61992343       0.67234779       9.70724573
O       43.49326802      12.53792024       9.70724573
O       32.60479145      13.21026803      10.55775427
O       23.76557657      21.63144366      10.55775427
O       20.89223198       9.76587121      10.55775427
O       18.90360855      16.52812057      11.95891240
O       27.74282343       8.10694494      11.95891240
O       30.61616802      19.97251739      11.95891240
O       19.72769145      20.64486518      12.80942094
O       23.76557657       6.76224936      12.80942094
O       33.76933198      17.20046837      12.80942094
O       44.65780855       1.65892627       7.45557906
O       40.61992343      15.54154210       7.45557906
O       30.61616802       5.10332309       7.45557906
O       45.48189145       5.77567088       8.30608760
O       36.64267657      14.19684651       8.30608760
O       33.76933198       2.33127406       8.30608760
O       30.54672182       8.15007304       8.22896127
O       42.05396879       0.07540912       8.22896127
O       43.29320939      14.07830929       8.22896127
O       33.83877818      14.15371841      12.03603873
O       22.33153121      22.22838234      12.03603873
O       21.09229061       8.22548216      12.03603873
O       17.66962182      15.58467019      10.48062793
O       29.17686879       7.51000627      10.48062793
O       30.41610939      21.51290644      10.48062793
O       20.96167818      21.58831556       7.53270540
O       22.33153121       7.35918803       7.53270540
O       33.96939061      15.66007931       7.53270540
O       43.42382182       0.71547589      12.73229460
O       42.05396879      14.94460342      12.73229460
O       30.41610939       6.64371214      12.73229460
O       46.71587818       6.71912126       9.78437207
O       35.20863121      14.79378518       9.78437207
O       33.96939061       0.79088501       9.78437207
O       34.03977684      13.01856695       7.81898005
O       36.09120189       0.66623655       7.81898005
O       45.76292128       8.61898795       7.81898005
O       30.34572316       9.28522451      12.44601995
O       28.29429811      21.63755490      12.44601995
O       18.62257872      13.68480350      12.44601995
O       21.16267684      20.45316410      10.07064672
O       23.21410189       8.10083371      10.07064672
O       32.88582128      16.05358511      10.07064672
O       17.46862316      16.71982166       7.94268662
O       28.29429811       6.76836060       7.94268662
O       31.49967872      21.11940065       7.94268662
O       46.91687684       5.58396979      12.32231338
O       36.09120189      15.53543086      12.32231338
O       32.88582128       1.18439080      12.32231338
O       43.22282316       1.85062736      10.19435328
O       41.17139811      14.20295775      10.19435328
O       31.49967872       6.25020635      10.19435328
C       31.26839313       9.08350902       8.47859904
C       40.88475387       0.23367682       8.47859904
C       43.74075300      12.98660561       8.47859904
C       33.11710687      13.22028244      11.78640095
C       23.50074613      22.07011463      11.78640095
C       20.64474700       9.31718584      11.78640095
C       18.39129313      16.51810617      10.73026571
C       28.00765387       7.66827397      10.73026571
C       30.86365300      20.42120276      10.73026571
C       20.24000687      20.65487959       7.28306762
C       23.50074613       7.20092033       7.28306762
C       33.52184700      16.75178299       7.28306762
C       44.14549313       1.64891187      12.98193238
C       40.88475387      15.10287113      12.98193238
C       30.86365300       5.55200846      12.98193238
C       45.99420687       5.78568528       9.53473429
C       36.37784613      14.63551748       9.53473429
C       33.52184700       1.88258869       9.53473429
C       31.82279092      10.10874740       7.55532564
C       39.71967249       0.20118020       7.55532564
C       44.35143659      11.99386385       7.55532564
C       32.56270908      12.19504405      12.70967436
C       24.66582751      22.10261126      12.70967436
C       20.03406341      10.30992760      12.70967436
C       18.94569092      17.54334455       9.80699231
C       26.84257249       7.63577735       9.80699231
C       31.47433659      19.42846101       9.80699231
C       19.68560908      19.62964120       8.20634102
C       24.66582751       7.23341695       8.20634102
C       32.91116341      17.74452475       8.20634102
C       44.69989092       2.67415025      12.05865898
C       39.71967249      15.07037450      12.05865898
C       31.47433659       4.55926670      12.05865898
C       45.43980908       4.76044690      10.45800769
C       37.54292751      14.66801410      10.45800769
C       32.91116341       2.87533045      10.45800769
C       33.08578976      12.23891561       7.28929348
C       37.24339328       0.22988518       7.28929348
C       45.56471695       9.83499066       7.28929348
C       31.29971024      10.06487584      12.97570652
C       27.14210672      22.07390628      12.97570652
C       18.82078305      12.46880079      12.97570652
C       20.20868976      19.67351276       9.54096015
C       24.36629328       7.66448233       9.54096015
C       32.68761695      17.26958782       9.54096015
C       18.42261024      17.49947299       8.47237319
C       27.14210672       7.20471197       8.47237319
C       31.69788305      19.90339794       8.47237319
C       45.96288976       4.80431846      11.79262681
C       37.24339328      15.09907948      11.79262681
C       32.68761695       2.40039351      11.79262681
C       44.17681024       2.63027869      10.72403985
C       40.01920672      14.63930912      10.72403985
C       31.69788305       5.03420364      10.72403985
C       32.67652977      11.09151936       8.06930009
C       38.44169758       0.44915375       8.06930009
C       44.77567265      10.76311834       8.06930009
C       31.70897023      11.21227209      12.19569991
C       25.94380242      21.85463770      12.19569991
C       19.60982735      11.54067312      12.19569991
C       19.79942977      18.52611651      10.32096675
C       25.56459758       7.88375090      10.32096675
C       31.89857265      18.19771549      10.32096675
C       18.83187023      18.64686924       7.69236658
C       25.94380242       6.98544340       7.69236658
C       32.48692735      18.97527027       7.69236658
C       45.55362977       3.65692221      12.57263342
C       38.44169758      15.31834806      12.57263342
C       31.89857265       3.32852119      12.57263342
C       44.58607023       3.77767494       9.94403325
C       38.82090242      14.42004055       9.94403325
C       32.48692735       4.10607596       9.94403325
H       33.00091680      11.00121131       8.96831628
H       38.35771313       0.77523518       8.96831628
H       44.53527007      10.52734496       8.96831628
H       31.38458320      11.30258014      11.29668372
H       26.02778687      21.52855627      11.29668372
H       19.85022993      11.77644650      11.29668372
H       20.12381680      18.43580846      11.21998295
H       25.48061313       8.20983233      11.21998295
H       31.65817007      17.96194211      11.21998295
H       18.50748320      18.73717729       6.79335039
H       26.02778687       6.65936197       6.79335039
H       32.72732993      19.21104365       6.79335039
H       45.87801680       3.56661416      13.47164961
H       38.35771313      15.64442949      13.47164961
H       31.65817007       3.09274781      13.47164961
H       44.26168320       3.86798299       9.04501705
H       38.90488687      14.09395912       9.04501705
H       32.72732993       4.34184934       9.04501705
Ne      23.53933880      11.35709061       7.88984000
Ne      29.90320162      14.70712008       7.88984000
Ne      23.82005958      18.54337221       7.88984000
Ne      40.84616120      10.94670085      12.37516000
Ne      34.48229838       7.59667137      12.37516000
Ne      40.56544042       3.76041924      12.37516000
Ne      36.41643880      18.79168776      10.14150667
Ne      17.02610162      22.14171724      10.14150667
Ne      23.82005958       3.67417791      10.14150667
Ne      27.96906120      18.38129800       7.87182667
Ne      21.60519838      15.03126852       7.87182667
Ne      27.68834042      11.19501639       7.87182667
Ne      36.41643880       3.92249346      12.39317333
Ne      42.78030162       7.27252293      12.39317333
Ne      36.69715958      11.10877506      12.39317333
Ne      27.96906120       3.51210369      10.12349333
Ne      47.35939838       0.16207422      10.12349333
Ne      40.56544042      18.62961354      10.12349333
Ne      25.75420000       0.00000000      10.13250000
Ne      38.63130000       7.43459715      12.38416667
Ne      25.75420000      14.86919430       7.88083333
Ni      33.34357643      14.44995737      15.89383950
Ni      22.32258162      21.65140555      15.89383950
Ni      21.59644195       8.50621998      15.89383950
Ni      31.04192357       7.85383408      17.88116050
Ni      42.06291838       0.65238590      17.88116050
Ni      42.78905805      13.79757147      17.88116050
Ni      20.46647643      21.88455452      18.14550617
Ni      22.32258162       6.78221125      18.14550617
Ni      34.47354195      15.94081714      18.14550617
Ni      18.16482357      15.28843124      20.13282717
Ni      29.18581838       8.08698305      20.13282717
Ni      29.91195805      21.23216862      20.13282717
Ni      46.22067643       7.01536022      13.64217283
Ni      35.19968162      14.21680840      13.64217283
Ni      34.47354195       1.07162283      13.64217283
Ni      43.91902357       0.41923693      15.62949383
Ni      42.06291838      15.52158020      15.62949383
Ni      29.91195805       6.36297432      15.62949383
O       31.78070855       9.09352342      16.46224573
O       40.61992343       0.67234779      16.46224573
O       43.49326802      12.53792024      16.46224573
O       32.60479145      13.21026803      17.31275427
O       23.76557657      21.63144366      17.31275427
O       20.89223198       9.76587121      17.31275427
O       18.90360855      16.52812057      18.71391240
O       27.74282343       8.10694494      18.71391240
O       30.61616802      19.97251739      18.71391240
O       19.72769145      20.64486518      19.56442094
O       23.76557657       6.76224936      19.56442094
O       33.76933198      17.20046837      19.56442094
O       44.65780855       1.65892627      14.21057906
O       40.61992343      15.54154210      14.21057906
O       30.61616802       5.10332309      14.21057906
O       45.48189145       5.77567088      15.06108760
O       36.64267657      14.19684651      15.06108760
O       33.76933198       2.33127406      15.06108760
O       30.54672182       8.15007304      14.98396126
O       42.05396879       0.07540912      14.98396126
O       43.29320939      14.07830929      14.98396126
O       33.83877818      14.15371841      18.79103874
O       22.33153121      22.22838234      18.79103874
O       21.09229061       8.22548216      18.79103874
O       17.66962182      15.58467019      17.23562793
O       29.17686879       7.51000627      17.23562793
O       30.41610939      21.51290644      17.23562793
O       20.96167818      21.58831556      14.28770540
O       22.33153121       7.35918803      14.28770540
O       33.96939061      15.66007931      14.28770540
O       43.42382182       0.71547589      19.48729460
O       42.05396879      14.94460342      19.48729460
O       30.41610939       6.64371214      19.48729460
O       46.71587818       6.71912126      16.53937207
O       35.20863121      14.79378518      16.53937207
O       33.96939061       0.79088501      16.53937207
O       34.03977684      13.01856695      14.57398005
O       36.09120189       0.66623655      14.57398005
O       45.76292128       8.61898795      14.57398005
O       30.34572316       9.28522451      19.20101995
O       28.29429811      21.63755490      19.20101995
O       18.62257872      13.68480350      19.20101995
O       21.16267684      20.45316410      16.82564672
O       23.21410189       8.10083371      16.82564672
O       32.88582128      16.05358511      16.82564672
O       17.46862316      16.71982166      14.69768662
O       28.29429811       6.76836060      14.69768662
O       31.49967872      21.11940065      14.69768662
O       46.91687684       5.58396979      19.07731338
O       36.09120189      15.53543086      19.07731338
O       32.88582128       1.18439080      19.07731338
O       43.22282316       1.85062736      16.94935328
O       41.17139811      14.20295775      16.94935328
O       31.49967872       6.25020635      16.94935328
C       31.26839313       9.08350902      15.23359905
C       40.88475387       0.23367682      15.23359905
C       43.74075300      12.98660561      15.23359905
C       33.11710687      13.22028244      18.54140096
C       23.50074613      22.07011463      18.54140096
C       20.64474700       9.31718584      18.54140096
C       18.39129313      16.51810617      17.48526571
C       28.00765387       7.66827397      17.48526571
C       30.86365300      20.42120276      17.48526571
C       20.24000687      20.65487959      14.03806762
C       23.50074613       7.20092033      14.03806762
C       33.52184700      16.75178299      14.03806762
C       44.14549313       1.64891187      19.73693238
C       40.88475387      15.10287113      19.73693238
C       30.86365300       5.55200846      19.73693238
C       45.99420687       5.78568528      16.28973429
C       36.37784613      14.63551748      16.28973429
C       33.52184700       1.88258869      16.28973429
C       31.82279092      10.10874740      14.31032565
C       39.71967249       0.20118020      14.31032565
C       44.35143659      11.99386385      14.31032565
C       32.56270908      12.19504405      19.46467435
C       24.66582751      22.10261126      19.46467435
C       20.03406341      10.30992760      19.46467435
C       18.94569092      17.54334455      16.56199231
C       26.84257249       7.63577735      16.56199231
C       31.47433659      19.42846101      16.56199231
C       19.68560908      19.62964120      14.96134102
C       24.66582751       7.23341695      14.96134102
C       32.91116341      17.74452475      14.96134102
C       44.69989092       2.67415025      18.81365898
C       39.71967249      15.07037450      18.81365898
C       31.47433659       4.55926670      18.81365898
C       45.43980908       4.76044690      17.21300769
C       37.54292751      14.66801410      17.21300769
C       32.91116341       2.87533045      17.21300769
C       33.08578976      12.23891561      14.04429348
C       37.24339328       0.22988518      14.04429348
C       45.56471695       9.83499066      14.04429348
C       31.29971024      10.06487584      19.73070652
C       27.14210672      22.07390628      19.73070652
C       18.82078305      12.46880079      19.73070652
C       20.20868976      19.67351276      16.29596015
C       24.36629328       7.66448233      16.29596015
C       32.68761695      17.26958782      16.29596015
C       18.42261024      17.49947299      15.22737319
C       27.14210672       7.20471197      15.22737319
C       31.69788305      19.90339794      15.22737319
C       45.96288976       4.80431846      18.54762681
C       37.24339328      15.09907948      18.54762681
C       32.68761695       2.40039351      18.54762681
C       44.17681024       2.63027869      17.47903985
C       40.01920672      14.63930912      17.47903985
C       31.69788305       5.03420364      17.47903985
C       32.67652977      11.09151936      14.82430009
C       38.44169758       0.44915375      14.82430009
C       44.77567265      10.76311834      14.82430009
C       31.70897023      11.21227209      18.95069992
C       25.94380242      21.85463770      18.95069992
C       19.60982735      11.54067312      18.95069992
C       19.79942977      18.52611651      17.07596675
C       25.56459758       7.88375090      17.07596675
C       31.89857265      18.19771549      17.07596675
C       18.83187023      18.64686924      14.44736658
C       25.94380242       6.98544340      14.44736658
C       32.48692735      18.97527027      14.44736658
C       45.55362977       3.65692221      19.32763342
C       38.44169758      15.31834806      19.32763342
C       31.89857265       3.32852119      19.32763342
C       44.58607023       3.77767494      16.69903325
C       38.82090242      14.42004055      16.69903325
C       32.48692735       4.10607596      16.69903325
H       33.00091680      11.00121131      15.72331628
H       38.35771313       0.77523518      15.72331628
H       44.53527007      10.52734496      15.72331628
H       31.38458320      11.30258014      18.05168372
H       26.02778687      21.52855627      18.05168372
H       19.85022993      11.77644650      18.05168372
H       20.12381680      18.43580846      17.97498295
H       25.48061313       8.20983233      17.97498295
H       31.65817007      17.96194211      17.97498295
H       18.50748320      18.73717729      13.54835039
H       26.02778687       6.65936197      13.54835039
H       32.72732993      19.21104365      13.54835039
H       45.87801680       3.56661416      20.22664961
H       38.35771313      15.64442949      20.22664961
H       31.65817007       3.09274781      20.22664961
H       44.26168320       3.86798299      15.80001705
H       38.90488687      14.09395912      15.80001705
H       32.72732993       4.34184934      15.80001705
Ne      23.53933880      11.35709061      14.64484000
Ne      29.90320162      14.70712008      14.64484000
Ne      23.82005958      18.54337221      14.64484000
Ne      40.84616120      10.94670085      19.13016000
Ne      34.48229838       7.59667137      19.13016000
Ne      40.56544042       3.76041924      19.13016000
Ne      36.41643880      18.79168776      16.89650667
Ne      17.02610162      22.14171724      16.89650667
Ne      23.82005958       3.67417791      16.89650667
Ne      27.96906120      18.38129800      14.62682667
Ne      21.60519838      15.03126852      14.62682667
Ne      27.68834042      11.19501639      14.62682667
Ne      36.41643880       3.92249346      19.14817333
Ne      42.78030162       7.27252293      19.14817333
Ne      36.69715958      11.10877506      19.14817333
Ne      27.96906120       3.51210369      16.87849333
Ne      47.35939838       0.16207422      16.87849333
Ne      40.56544042      18.62961354      16.87849333
Ne      25.75420000       0.00000000      16.88750000
Ne      38.63130000       7.43459715      19.13916667
Ne      25.75420000      14.86919430      14.63583333
Ni      20.46647643      36.75374882       2.38383950
Ni       9.44548162      43.95519701       2.38383950
Ni       8.71934195      30.81001144       2.38383950
Ni      18.16482357      30.15762554       4.37116050
Ni      29.18581838      22.95617735       4.37116050
Ni      29.91195805      36.10136292       4.37116050
Ni       7.58937643      44.18834597       4.63550617
Ni       9.44548162      29.08600271       4.63550617
Ni      21.59644195      38.24460859       4.63550617
Ni       5.28772357      37.59222269       6.62282717
Ni      16.30871838      30.39077451       6.62282717
Ni      17.03485805      43.53596007       6.62282717
Ni      33.34357643      29.31915167       0.13217283
Ni      22.32258162      36.52059986       0.13217283
Ni      21.59644195      23.37541429       0.13217283
Ni      31.04192357      22.72302839       2.11949383
Ni      29.18581838      37.82537166       2.11949383
Ni      17.03485805      28.66676577       2.11949383
O       18.90360855      31.39731488       2.95224573
O       27.74282343      22.97613925       2.95224573
O       30.61616802      34.84171169       2.95224573
O       19.72769145      35.51405949       3.80275427
O       10.88847657      43.93523511       3.80275427
O        8.01513198      32.06966267       3.80275427
O        6.02650855      38.83191203       5.20391240
O       14.86572343      30.41073640       5.20391240
O       17.73906802      42.27630884       5.20391240
O        6.85059145      42.94865664       6.05442094
O       10.88847657      29.06604081       6.05442094
O       20.89223198      39.50425982       6.05442094
O       31.78070855      23.96271772       0.70057906
O       27.74282343      37.84533355       0.70057906
O       17.73906802      27.40711454       0.70057906
O       32.60479145      28.07946234       1.55108760
O       23.76557657      36.50063796       1.55108760
O       20.89223198      24.63506552       1.55108760
O       17.66962182      30.45386450       1.47396127
O       29.17686879      22.37920057       1.47396127
O       30.41610939      36.38210075       1.47396127
O       20.96167818      36.45750987       5.28103874
O        9.45443121      44.53217379       5.28103874
O        8.21519061      30.52927362       5.28103874
O        4.79252182      37.88846165       3.72562793
O       16.29976879      29.81379772       3.72562793
O       17.53900939      43.81669790       3.72562793
O        8.08457818      43.89210702       0.77770540
O        9.45443121      29.66297949       0.77770540
O       21.09229061      37.96387077       0.77770540
O       30.54672182      23.01926735       5.97729460
O       29.17686879      37.24839488       5.97729460
O       17.53900939      28.94750360       5.97729460
O       33.83877818      29.02291271       3.02937207
O       22.33153121      37.09757664       3.02937207
O       21.09229061      23.09467646       3.02937207
O       21.16267684      35.32235840       1.06398005
O       23.21410189      22.97002801       1.06398005
O       32.88582128      30.92277941       1.06398005
O       17.46862316      31.58901596       5.69101995
O       15.41719811      43.94134635       5.69101995
O        5.74547872      35.98859495       5.69101995
O        8.28557684      42.75695555       3.31564672
O       10.33700189      30.40462516       3.31564672
O       20.00872128      38.35737656       3.31564672
O        4.59152316      39.02361311       1.18768662
O       15.41719811      29.07215205       1.18768662
O       18.62257872      43.42319211       1.18768662
O       34.03977684      27.88776125       5.56731338
O       23.21410189      37.83922231       5.56731338
O       20.00872128      23.48818226       5.56731338
O       30.34572316      24.15441881       3.43935328
O       28.29429811      36.50674920       3.43935328
O       18.62257872      28.55399780       3.43935328
C       18.39129313      31.38730047       1.72359905
C       28.00765387      22.53746828       1.72359905
C       30.86365300      35.29039707       1.72359905
C       20.24000687      35.52407389       5.03140095
C       10.62364613      44.37390609       5.03140095
C        7.76764700      31.62097730       5.03140095
C        5.51419313      38.82189762       3.97526571
C       15.13055387      29.97206543       3.97526571
C       17.98655300      42.72499422       3.97526571
C        7.36290687      42.95867104       0.52806762
C       10.62364613      29.50471178       0.52806762
C       20.64474700      39.05557445       0.52806762
C       31.26839313      23.95270332       6.22693238
C       28.00765387      37.40666258       6.22693238
C       17.98655300      27.85579991       6.22693238
C       33.11710687      28.08947674       2.77973429
C       23.50074613      36.93930893       2.77973429
C       20.64474700      24.18638014       2.77973429
C       18.94569092      32.41253885       0.80032565
C       26.84257249      22.50497165       0.80032565
C       31.47433659      34.29765531       0.80032565
C       19.68560908      34.49883551       5.95467435
C       11.78872751      44.40640271       5.95467435
C        7.15696341      32.61371905       5.95467435
C        6.06859092      39.84713601       3.05199231
C       13.96547249      29.93956880       3.05199231
C       18.59723659      41.73225246       3.05199231
C        6.80850908      41.93343266       1.45134102
C       11.78872751      29.53720841       1.45134102
C       20.03406341      40.04831621       1.45134102
C       31.82279092      24.97794170       5.30365898
C       26.84257249      37.37416596       5.30365898
C       18.59723659      26.86305816       5.30365898
C       32.56270908      27.06423836       3.70300769
C       24.66582751      36.97180556       3.70300769
C       20.03406341      25.17912190       3.70300769
C       20.20868976      34.54270707       0.53429348
C       24.36629328      22.53367663       0.53429348
C       32.68761695      32.13878212       0.53429348
C       18.42261024      32.36866730       6.22070652
C       14.26500672      44.37769773       6.22070652
C        5.94368305      34.77259224       6.22070652
C        7.33158976      41.97730422       2.78596015
C       11.48919328      29.96827378       2.78596015
C       19.81051695      39.57337927       2.78596015
C        5.54551024      39.80326445       1.71737319
C       14.26500672      29.50850343       1.71737319
C       18.82078305      42.20718940       1.71737319
C       33.08578976      27.10810991       5.03762681
C       24.36629328      37.40287094       5.03762681
C       19.81051695      24.70418497       5.03762681
C       31.29971024      24.93407015       3.96903985
C       27.14210672      36.94310058       3.96903985
C       18.82078305      27.33799509       3.96903985
C       19.79942977      33.39531082       1.31430009
C       25.56459758      22.75294521       1.31430009
C       31.89857265      33.06690979       1.31430009
C       18.83187023      33.51606354       5.44069991
C       13.06670242      44.15842916       5.44069991
C        6.73272735      33.84446457       5.44069991
C        6.92232977      40.82990797       3.56596675
C       12.68749758      30.18754236       3.56596675
C       19.02147265      40.50150694       3.56596675
C        5.95477023      40.95066070       0.93736658
C       13.06670242      29.28923485       0.93736658
C       19.60982735      41.27906172       0.93736658
C       32.67652977      25.96071367       5.81763342
C       25.56459758      37.62213951       5.81763342
C       19.02147265      25.63231264       5.81763342
C       31.70897023      26.08146639       3.18903325
C       25.94380242      36.72383200       3.18903325
C       19.60982735      26.40986742       3.18903325
H       20.12381680      33.30500277       2.21331628
H       25.48061313      23.07902664       2.21331628
H       31.65817007      32.83113641       2.21331628
H       18.50748320      33.60637160       4.54168372
H       13.15068687      43.83234772       4.54168372
H        6.97312993      34.08023795       4.54168372
H        7.24671680      40.73959992       4.46498295
H       12.60351313      30.51362379       4.46498295
H       18.78107007      40.26573356       4.46498295
H        5.63038320      41.04096875       0.03835039
H       13.15068687      28.96315342       0.03835039
H       19.85022993      41.51483510       0.03835039
H       33.00091680      25.87040561       6.71664961
H       25.48061313      37.94822094       6.71664961
H       18.78107007      25.39653926       6.71664961
H       31.38458320      26.17177444       2.29001705
H       26.02778687      36.39775057       2.29001705
H       19.85022993      26.64564080       2.29001705
Ne      10.66223880      33.66088206       1.13484000
Ne      17.02610162      37.01091154       1.13484000
Ne      10.94295958      40.84716367       1.13484000
Ne      27.96906120      33.25049230       5.62016000
Ne      21.60519838      29.90046282       5.62016000
Ne      27.68834042      26.06421069       5.62016000
Ne      23.53933880      41.09547921       3.38650667
Ne       4.14900162      44.44550869       3.38650667
Ne      10.94295958      25.97796937       3.38650667
Ne      15.09196120      40.68508945       1.11682667
Ne       8.72809838      37.33505997       1.11682667
Ne      14.81124042      33.49880784       1.11682667
Ne      23.53933880      26.22628491       5.63817333
Ne      29.90320162      29.57631439       5.63817333
Ne      23.82005958      33.41256652       5.63817333
Ne      15.09196120      25.81589515       3.36849333
Ne      34.48229838      22.46586567       3.36849333
Ne      27.68834042      40.93340500       3.36849333
Ne      12.87710000      22.30379145       3.37750000
Ne      25.75420000      29.73838861       5.62916667
Ne      12.87710000      37.17298576       1.12583333
Ni      20.46647643      36.75374882       9.13883950
Ni       9.44548162      43.95519701       9.13883950
Ni       8.71934195      30.81001144       9.13883950
Ni      18.16482357      30.15762554      11.12616050
Ni      29.18581838      22.95617735      11.12616050
Ni      29.91195805      36.10136292      11.12616050
Ni       7.58937643      44.18834597      11.39050617
Ni       9.44548162      29.08600271      11.39050617
Ni      21.59644195      38.24460859      11.39050617
Ni       5.28772357      37.59222269      13.37782717
Ni      16.30871838      30.39077451      13.37782717
Ni      17.03485805      43.53596007      13.37782717
Ni      33.34357643      29.31915167       6.88717283
Ni      22.32258162      36.52059986       6.88717283
Ni      21.59644195      23.37541429       6.88717283
Ni      31.04192357      22.72302839       8.87449383
Ni      29.18581838      37.82537166       8.87449383
Ni      17.03485805      28.66676577       8.87449383
O       18.90360855      31.39731488       9.70724573
O       27.74282343      22.97613925       9.70724573
O       30.61616802      34.84171169       9.70724573
O       19.72769145      35.51405949      10.55775427
O       10.88847657      43.93523511      10.55775427
O        8.01513198      32.06966267      10.55775427
O        6.02650855      38.83191203      11.95891240
O       14.86572343      30.41073640      11.95891240
O       17.73906802      42.27630884      11.95891240
O        6.85059145      42.94865664      12.80942094
O       10.88847657      29.06604081      12.80942094
O       20.89223198      39.50425982      12.80942094
O       31.78070855      23.96271772       7.45557906
O       27.74282343      37.84533355       7.45557906
O       17.73906802      27.40711454       7.45557906
O       32.60479145      28.07946234       8.30608760
O       23.76557657      36.50063796       8.30608760
O       20.89223198      24.63506552       8.30608760
O       17.66962182      30.45386450       8.22896127
O       29.17686879      22.37920057       8.22896127
O       30.41610939      36.38210075       8.22896127
O       20.96167818      36.45750987      12.03603873
O        9.45443121      44.53217379      12.03603873
O        8.21519061      30.52927362      12.03603873
O        4.79252182      37.88846165      10.48062793
O       16.29976879      29.81379772      10.48062793
O       17.53900939      43.81669790      10.48062793
O        8.08457818      43.89210702       7.53270540
O        9.45443121      29.66297949       7.53270540
O       21.09229061      37.96387077       7.53270540
O       30.54672182      23.01926735      12.73229460
O       29.17686879      37.24839488      12.73229460
O       17.53900939      28.94750360      12.73229460
O       33.83877818      29.02291271       9.78437207
O       22.33153121      37.09757664       9.78437207
O       21.09229061      23.09467646       9.78437207
O       21.16267684      35.32235840       7.81898005
O       23.21410189      22.97002801       7.81898005
O       32.88582128      30.92277941       7.81898005
O       17.46862316      31.58901596      12.44601995
O       15.41719811      43.94134635      12.44601995
O        5.74547872      35.98859495      12.44601995
O        8.28557684      42.75695555      10.07064672
O       10.33700189      30.40462516      10.07064672
O       20.00872128      38.35737656      10.07064672
O        4.59152316      39.02361311       7.94268662
O       15.41719811      29.07215205       7.94268662
O       18.62257872      43.42319211       7.94268662
O       34.03977684      27.88776125      12.32231338
O       23.21410189      37.83922231      12.32231338
O       20.00872128      23.48818226      12.32231338
O       30.34572316      24.15441881      10.19435328
O       28.29429811      36.50674920      10.19435328
O       18.62257872      28.55399780      10.19435328
C       18.39129313      31.38730047       8.47859904
C       28.00765387      22.53746828       8.47859904
C       30.86365300      35.29039707       8.47859904
C       20.24000687      35.52407389      11.78640095
C       10.62364613      44.37390609      11.78640095
C        7.76764700      31.62097730      11.78640095
C        5.51419313      38.82189762      10.73026571
C       15.13055387      29.97206543      10.73026571
C       17.98655300      42.72499422      10.73026571
C        7.36290687      42.95867104       7.28306762
C       10.62364613      29.50471178       7.28306762
C       20.64474700      39.05557445       7.28306762
C       31.26839313      23.95270332      12.98193238
C       28.00765387      37.40666258      12.98193238
C       17.98655300      27.85579991      12.98193238
C       33.11710687      28.08947674       9.53473429
C       23.50074613      36.93930893       9.53473429
C       20.64474700      24.18638014       9.53473429
C       18.94569092      32.41253885       7.55532564
C       26.84257249      22.50497165       7.55532564
C       31.47433659      34.29765531       7.55532564
C       19.68560908      34.49883551      12.70967436
C       11.78872751      44.40640271      12.70967436
C        7.15696341      32.61371905      12.70967436
C        6.06859092      39.84713601       9.80699231
C       13.96547249      29.93956880       9.80699231
C       18.59723659      41.73225246       9.80699231
C        6.80850908      41.93343266       8.20634102
C       11.78872751      29.53720841       8.20634102
C       20.03406341      40.04831621       8.20634102
C       31.82279092      24.97794170      12.05865898
C       26.84257249      37.37416596      12.05865898
C       18.59723659      26.86305816      12.05865898
C       32.56270908      27.06423836      10.45800769
C       24.66582751      36.97180556      10.45800769
C       20.03406341      25.17912190      10.45800769
C       20.20868976      34.54270707       7.28929348
C       24.36629328      22.53367663       7.28929348
C       32.68761695      32.13878212       7.28929348
C       18.42261024      32.36866730      12.97570652
C       14.26500672      44.37769773      12.97570652
C        5.94368305      34.77259224      12.97570652
C        7.33158976      41.97730422       9.54096015
C       11.48919328      29.96827378       9.54096015
C       19.81051695      39.57337927       9.54096015
C        5.54551024      39.80326445       8.47237319
C       14.26500672      29.50850343       8.47237319
C       18.82078305      42.20718940       8.47237319
C       33.08578976      27.10810991      11.79262681
C       24.36629328      37.40287094      11.79262681
C       19.81051695      24.70418497      11.79262681
C       31.29971024      24.93407015      10.72403985
C       27.14210672      36.94310058      10.72403985
C       18.82078305      27.33799509      10.72403985
C       19.79942977      33.39531082       8.06930009
C       25.56459758      22.75294521       8.06930009
C       31.89857265      33.06690979       8.06930009
C       18.83187023      33.51606354      12.19569991
C       13.06670242      44.15842916      12.19569991
C        6.73272735      33.84446457      12.19569991
C        6.92232977      40.82990797      10.32096675
C       12.68749758      30.18754236      10.32096675
C       19.02147265      40.50150694      10.32096675
C        5.95477023      40.95066070       7.69236658
C       13.06670242      29.28923485       7.69236658
C       19.60982735      41.27906172       7.69236658
C       32.67652977      25.96071367      12.57263342
C       25.56459758      37.62213951      12.57263342
C       19.02147265      25.63231264      12.57263342
C       31.70897023      26.08146639       9.94403325
C       25.94380242      36.72383200       9.94403325
C       19.60982735      26.40986742       9.94403325
H       20.12381680      33.30500277       8.96831628
H       25.48061313      23.07902664       8.96831628
H       31.65817007      32.83113641       8.96831628
H       18.50748320      33.60637160      11.29668372
H       13.15068687      43.83234772      11.29668372
H        6.97312993      34.08023795      11.29668372
H        7.24671680      40.73959992      11.21998295
H       12.60351313      30.51362379      11.21998295
H       18.78107007      40.26573356      11.21998295
H        5.63038320      41.04096875       6.79335039
H       13.15068687      28.96315342       6.79335039
H       19.85022993      41.51483510       6.79335039
H       33.00091680      25.87040561      13.47164961
H       25.48061313      37.94822094      13.47164961
H       18.78107007      25.39653926      13.47164961
H       31.38458320      26.17177444       9.04501705
H       26.02778687      36.39775057       9.04501705
H       19.85022993      26.64564080       9.04501705
Ne      10.66223880      33.66088206       7.88984000
Ne      17.02610162      37.01091154       7.88984000
Ne      10.94295958      40.84716367       7.88984000
Ne      27.96906120      33.25049230      12.37516000
Ne      21.60519838      29.90046282      12.37516000
Ne      27.68834042      26.06421069      12.37516000
Ne      23.53933880      41.09547921      10.14150667
Ne       4.14900162      44.44550869      10.14150667
Ne      10.94295958      25.97796937      10.14150667
Ne      15.09196120      40.68508945       7.87182667
Ne       8.72809838      37.33505997       7.87182667
Ne      14.81124042      33.49880784       7.87182667
Ne      23.53933880      26.22628491      12.39317333
Ne      29.90320162      29.57631439      12.39317333
Ne      23.82005958      33.41256652      12.39317333
Ne      15.09196120      25.81589515      10.12349333
Ne      34.48229838      22.46586567      10.12349333
Ne      27.68834042      40.93340500      10.12349333
Ne      12.87710000      22.30379145      10.13250000
Ne      25.75420000      29.73838861      12.38416667
Ne      12.87710000      37.17298576       7.88083333
Ni      20.46647643      36.75374882      15.89383950
Ni       9.44548162      43.95519701      15.89383950
Ni       8.71934195      30.81001144      15.89383950
Ni      18.16482357      30.15762554      17.88116050
Ni      29.18581838      22.95617735      17.88116050
Ni      29.91195805      36.10136292      17.88116050
Ni       7.58937643      44.18834597      18.14550617
Ni       9.44548162      29.08600271      18.14550617
Ni      21.59644195      38.24460859      18.14550617
Ni       5.28772357      37.59222269      20.13282717
Ni      16.30871838      30.39077451      20.13282717
Ni      17.03485805      43.53596007      20.13282717
Ni      33.34357643      29.31915167      13.64217283
Ni      22.32258162      36.52059986      13.64217283
Ni      21.59644195      23.37541429      13.64217283
Ni      31.04192357      22.72302839      15.62949383
Ni      29.18581838      37.82537166      15.62949383
Ni      17.03485805      28.66676577      15.62949383
O       18.90360855      31.39731488      16.46224573
O       27.74282343      22.97613925      16.46224573
O       30.61616802      34.84171169      16.46224573
O       19.72769145      35.51405949      17.31275427
O       10.88847657      43.93523511      17.31275427
O        8.01513198      32.06966267      17.31275427
O        6.02650855      38.83191203      18.71391240
O       14.86572343      30.41073640      18.71391240
O       17.73906802      42.27630884      18.71391240
O        6.85059145      42.94865664      19.56442094
O       10.88847657      29.06604081      19.56442094
O       20.89223198      39.50425982      19.56442094
O       31.78070855      23.96271772      14.21057906
O       27.74282343      37.84533355      14.21057906
O       17.73906802      27.40711454      14.21057906
O       32.60479145      28.07946234      15.06108760
O       23.76557657      36.50063796      15.06108760
O       20.89223198      24.63506552      15.06108760
O       17.66962182      30.45386450      14.98396126
O       29.17686879      22.37920057      14.98396126
O       30.41610939      36.38210075      14.98396126
O       20.96167818      36.45750987      18.79103874
O        9.45443121      44.53217379      18.79103874
O        8.21519061      30.52927362      18.79103874
O        4.79252182      37.88846165      17.23562793
O       16.29976879      29.81379772      17.23562793
O       17.53900939      43.81669790      17.23562793
O        8.08457818      43.89210702      14.28770540
O        9.45443121      29.66297949      14.28770540
O       21.09229061      37.96387077      14.28770540
O       30.54672182      23.01926735      19.48729460
O       29.17686879      37.24839488      19.48729460
O       17.53900939      28.94750360      19.48729460
O       33.83877818      29.02291271      16.53937207
O       22.33153121      37.09757664      16.53937207
O       21.09229061      23.09467646      16.53937207
O       21.16267684      35.32235840      14.57398005
O       23.21410189      22.97002801      14.57398005
O       32.88582128      30.92277941      14.57398005
O       17.46862316      31.58901596      19.20101995
O       15.41719811      43.94134635      19.20101995
O        5.74547872      35.98859495      19.20101995
O        8.28557684      42.75695555      16.82564672
O       10.33700189      30.40462516      16.82564672
O       20.00872128      38.35737656      16.82564672
O        4.59152316      39.02361311      14.69768662
O       15.41719811      29.07215205      14.69768662
O       18.62257872      43.42319211      14.69768662
O       34.03977684      27.88776125      19.07731338
O       23.21410189      37.83922231      19.07731338
O       20.00872128      23.48818226      19.07731338
O       30.34572316      24.15441881      16.94935328
O       28.29429811      36.50674920      16.94935328
O       18.62257872      28.55399780      16.94935328
C       18.39129313      31.38730047      15.23359905
C       28.00765387      22.53746828      15.23359905
C       30.86365300      35.29039707      15.23359905
C       20.24000687      35.52407389      18.54140096
C       10.62364613      44.37390609      18.54140096
C        7.76764700      31.62097730      18.54140096
C        5.51419313      38.82189762      17.48526571
C       15.13055387      29.97206543      17.48526571
C       17.98655300      42.72499422      17.48526571
C        7.36290687      42.95867104      14.03806762
C       10.62364613      29.50471178      14.03806762
C       20.64474700      39.05557445      14.03806762
C       31.26839313      23.95270332      19.73693238
C       28.00765387      37.40666258      19.73693238
C       17.98655300      27.85579991      19.73693238
C       33.11710687      28.08947674      16.28973429
C       23.50074613      36.93930893      16.28973429
C       20.64474700      24.18638014      16.28973429
C       18.94569092      32.41253885      14.31032565
C       26.84257249      22.50497165      14.31032565
C       31.47433659      34.29765531      14.31032565
C       19.68560908      34.49883551      19.46467435
C       11.78872751      44.40640271      19.46467435
C        7.15696341      32.61371905      19.46467435
C        6.06859092      39.84713601      16.56199231
C       13.96547249      29.93956880      16.56199231
C       18.59723659      41.73225246      16.56199231
C        6.80850908      41.93343266      14.96134102
C       11.78872751      29.53720841      14.96134102
C       20.03406341      40.04831621      14.96134102
C       31.82279092      24.97794170      18.81365898
C       26.84257249      37.37416596      18.81365898
C       18.59723659      26.86305816      18.81365898
C       32.56270908      27.06423836      17.21300769
C       24.66582751      36.97180556      17.21300769
C       20.03406341      25.17912190      17.21300769
C       20.20868976      34.54270707      14.04429348
C       24.36629328      22.53367663      14.04429348
C       32.68761695      32.13878212      14.04429348
C       18.42261024      32.36866730      19.73070652
C       14.26500672      44.37769773      19.73070652
C        5.94368305      34.77259224      19.73070652
C        7.33158976      41.97730422      16.29596015
C       11.48919328      29.96827378      16.29596015
C       19.81051695      39.57337927      16.29596015
C        5.54551024      39.80326445      15.22737319
C       14.26500672      29.50850343      15.22737319
C       18.82078305      42.20718940      15.22737319
C       33.08578976      27.10810991      18.54762681
C       24.36629328      37.40287094      18.54762681
C       19.81051695      24.70418497      18.54762681
C       31.29971024      24.93407015      17.47903985
C       27.14210672      36.94310058      17.47903985
C       18.82078305      27.33799509      17.47903985
C       19.79942977      33.39531082      14.82430009
C       25.56459758      22.75294521      14.82430009
C       31.89857265      33.06690979      14.82430009
C       18.83187023      33.51606354      18.95069992
C       13.06670242      44.15842916      18.95069992
C        6.73272735      33.84446457      18.95069992
C        6.92232977      40.82990797      17.07596675
C       12.68749758      30.18754236      17.07596675
C       19.02147265      40.50150694      17.07596675
C        5.95477023      40.95066070      14.44736658
C       13.06670242      29.28923485      14.44736658
C       19.60982735      41.27906172      14.44736658
C       32.67652977      25.96071367      19.32763342
C       25.56459758      37.62213951      19.32763342
C       19.02147265      25.63231264      19.32763342
C       31.70897023      26.08146639      16.69903325
C       25.94380242      36.72383200      16.69903325
C       19.60982735      26.40986742      16.69903325
H       20.12381680      33.30500277      15.72331628
H       25.48061313      23.07902664      15.72331628
H       31.65817007      32.83113641      15.72331628
H       18.50748320      33.60637160      18.05168372
H       13.15068687      43.83234772      18.05168372
H        6.97312993      34.08023795      18.05168372
H        7.24671680      40.73959992      17.97498295
H       12.60351313      30.51362379      17.97498295
H       18.78107007      40.26573356      17.97498295
H        5.63038320      41.04096875      13.54835039
H       13.15068687      28.96315342      13.54835039
H       19.85022993      41.51483510      13.54835039
H       33.00091680      25.87040561      20.22664961
H       25.48061313      37.94822094      20.22664961
H       18.78107007      25.39653926      20.22664961
H       31.38458320      26.17177444      15.80001705
H       26.02778687      36.39775057      15.80001705
H       19.85022993      26.64564080      15.80001705
Ne      10.66223880      33.66088206      14.64484000
Ne      17.02610162      37.01091154      14.64484000
Ne      10.94295958      40.84716367      14.64484000
Ne      27.96906120      33.25049230      19.13016000
Ne      21.60519838      29.90046282      19.13016000
Ne      27.68834042      26.06421069      19.13016000
Ne      23.53933880      41.09547921      16.89650667
Ne       4.14900162      44.44550869      16.89650667
Ne      10.94295958      25.97796937      16.89650667
Ne      15.09196120      40.68508945      14.62682667
Ne       8.72809838      37.33505997      14.62682667
Ne      14.81124042      33.49880784      14.62682667
Ne      23.53933880      26.22628491      19.14817333
Ne      29.90320162      29.57631439      19.14817333
Ne      23.82005958      33.41256652      19.14817333
Ne      15.09196120      25.81589515      16.87849333
Ne      34.48229838      22.46586567      16.87849333
Ne      27.68834042      40.93340500      16.87849333
Ne      12.87710000      22.30379145      16.88750000
Ne      25.75420000      29.73838861      19.13916667
Ne      12.87710000      37.17298576      14.63583333
Ni       7.58937643      59.05754028       2.38383950
Ni      -3.43161838      66.25898846       2.38383950
Ni      -4.15775805      53.11380289       2.38383950
Ni       5.28772357      52.46141699       4.37116050
Ni      16.30871838      45.25996881       4.37116050
Ni      17.03485805      58.40515438       4.37116050
Ni      -5.28772357      66.49213743       4.63550617
Ni      -3.43161838      51.38979416       4.63550617
Ni       8.71934195      60.54840004       4.63550617
Ni      -7.58937643      59.89601414       6.62282717
Ni       3.43161838      52.69456596       6.62282717
Ni       4.15775805      65.83975153       6.62282717
Ni      20.46647643      51.62294313       0.13217283
Ni       9.44548162      58.82439131       0.13217283
Ni       8.71934195      45.67920574       0.13217283
Ni      18.16482357      45.02681984       2.11949383
Ni      16.30871838      60.12916311       2.11949383
Ni       4.15775805      50.97055723       2.11949383
O        6.02650855      53.70110633       2.95224573
O       14.86572343      45.27993070       2.95224573
O       17.73906802      57.14550315       2.95224573
O        6.85059145      57.81785094       3.80275427
O       -1.98862343      66.23902657       3.80275427
O       -4.86196802      54.37345412       3.80275427
O       -6.85059145      61.13570348       5.20391240
O        1.98862343      52.71452785       5.20391240
O        4.86196802      64.58010030       5.20391240
O       -6.02650855      65.25244809       6.05442094
O       -1.98862343      51.36983227       6.05442094
O        8.01513198      61.80805127       6.05442094
O       18.90360855      46.26650918       0.70057906
O       14.86572343      60.14912500       0.70057906
O        4.86196802      49.71090600       0.70057906
O       19.72769145      50.38325379       1.55108760
O       10.88847657      58.80442942       1.55108760
O        8.01513198      46.93885697       1.55108760
O        4.79252182      52.75765595       1.47396127
O       16.29976879      44.68299203       1.47396127
O       17.53900939      58.68589220       1.47396127
O        8.08457818      58.76130132       5.28103874
O       -3.42266879      66.83596524       5.28103874
O       -4.66190939      52.83306507       5.28103874
O       -8.08457818      60.19225310       3.72562793
O        3.42266879      52.11758918       3.72562793
O        4.66190939      66.12048935       3.72562793
O       -4.79252182      66.19589847       0.77770540
O       -3.42266879      51.96677094       0.77770540
O        8.21519061      60.26766222       0.77770540
O       17.66962182      45.32305880       5.97729460
O       16.29976879      59.55218633       5.97729460
O        4.66190939      51.25129505       5.97729460
O       20.96167818      51.32670417       3.02937207
O        9.45443121      59.40136809       3.02937207
O        8.21519061      45.39846792       3.02937207
O        8.28557684      57.62614985       1.06398005
O       10.33700189      45.27381946       1.06398005
O       20.00872128      53.22657086       1.06398005
O        4.59152316      53.89280742       5.69101995
O        2.54009811      66.24513781       5.69101995
O       -7.13162128      58.29238641       5.69101995
O       -4.59152316      65.06074700       3.31564672
O       -2.54009811      52.70841661       3.31564672
O        7.13162128      60.66116801       3.31564672
O       -8.28557684      61.32740457       1.18768662
O        2.54009811      51.37594351       1.18768662
O        5.74547872      65.72698356       1.18768662
O       21.16267684      50.19155270       5.56731338
O       10.33700189      60.14301377       5.56731338
O        7.13162128      45.79197371       5.56731338
O       17.46862316      46.45821027       3.43935328
O       15.41719811      58.81054066       3.43935328
O        5.74547872      50.85778926       3.43935328
C        5.51419313      53.69109193       1.72359905
C       15.13055387      44.84125973       1.72359905
C       17.98655300      57.59418852       1.72359905
C        7.36290687      57.82786534       5.03140095
C       -2.25345387      66.67769754       5.03140095
C       -5.10945300      53.92476875       5.03140095
C       -7.36290687      61.12568908       3.97526571
C        2.25345387      52.27585688       3.97526571
C        5.10945300      65.02878567       3.97526571
C       -5.51419313      65.26246249       0.52806762
C       -2.25345387      51.80850324       0.52806762
C        7.76764700      61.35936590       0.52806762
C       18.39129313      46.25649478       6.22693238
C       15.13055387      59.71045403       6.22693238
C        5.10945300      50.15959137       6.22693238
C       20.24000687      50.39326819       2.77973429
C       10.62364613      59.24310039       2.77973429
C        7.76764700      46.49017160       2.77973429
C        6.06859092      54.71633031       0.80032565
C       13.96547249      44.80876311       0.80032565
C       18.59723659      56.60144676       0.80032565
C        6.80850908      56.80262696       5.95467435
C       -1.08837249      66.71019416       5.95467435
C       -5.72013659      54.91751051       5.95467435
C       -6.80850908      62.15092746       3.05199231
C        1.08837249      52.24336026       3.05199231
C        5.72013659      64.03604391       3.05199231
C       -6.06859092      64.23722411       1.45134102
C       -1.08837249      51.84099986       1.45134102
C        7.15696341      62.35210766       1.45134102
C       18.94569092      47.28173316       5.30365898
C       13.96547249      59.67795741       5.30365898
C        5.72013659      49.16684961       5.30365898
C       19.68560908      49.36802981       3.70300769
C       11.78872751      59.27559701       3.70300769
C        7.15696341      47.48291336       3.70300769
C        7.33158976      56.84649852       0.53429348
C       11.48919328      44.83746809       0.53429348
C       19.81051695      54.44257357       0.53429348
C        5.54551024      54.67245875       6.22070652
C        1.38790672      66.68148918       6.22070652
C       -6.93341695      57.07638370       6.22070652
C       -5.54551024      64.28109567       2.78596015
C       -1.38790672      52.27206524       2.78596015
C        6.93341695      61.87717072       2.78596015
C       -7.33158976      62.10705590       1.71737319
C        1.38790672      51.81229488       1.71737319
C        5.94368305      64.51098085       1.71737319
C       20.20868976      49.41190137       5.03762681
C       11.48919328      59.70666239       5.03762681
C        6.93341695      47.00797642       5.03762681
C       18.42261024      47.23786160       3.96903985
C       14.26500672      59.24689203       3.96903985
C        5.94368305      49.64178655       3.96903985
C        6.92232977      55.69910227       1.31430009
C       12.68749758      45.05673666       1.31430009
C       19.02147265      55.37070125       1.31430009
C        5.95477023      55.81985500       5.44069991
C        0.18960242      66.46222061       5.44069991
C       -6.14437265      56.14825602       5.44069991
C       -5.95477023      63.13369942       3.56596675
C       -0.18960242      52.49133381       3.56596675
C        6.14437265      62.80529840       3.56596675
C       -6.92232977      63.25445215       0.93736658
C        0.18960242      51.59302631       0.93736658
C        6.73272735      63.58285318       0.93736658
C       19.79942977      48.26450512       5.81763342
C       12.68749758      59.92593096       5.81763342
C        6.14437265      47.93610410       5.81763342
C       18.83187023      48.38525785       3.18903325
C       13.06670242      59.02762346       3.18903325
C        6.73272735      48.71365887       3.18903325
H        7.24671680      55.60879422       2.21331628
H       12.60351313      45.38281809       2.21331628
H       18.78107007      55.13492787       2.21331628
H        5.63038320      55.91016305       4.54168372
H        0.27358687      66.13613918       4.54168372
H       -5.90397007      56.38402940       4.54168372
H       -5.63038320      63.04339137       4.46498295
H       -0.27358687      52.81741524       4.46498295
H        5.90397007      62.56952502       4.46498295
H       -7.24671680      63.34476020       0.03835039
H        0.27358687      51.26694488       0.03835039
H        6.97312993      63.81862656       0.03835039
H       20.12381680      48.17419707       6.71664961
H       12.60351313      60.25201239       6.71664961
H        5.90397007      47.70033072       6.71664961
H       18.50748320      48.47556590       2.29001705
H       13.15068687      58.70154203       2.29001705
H        6.97312993      48.94943225       2.29001705
Ne      -2.21486120      55.96467352       1.13484000
Ne       4.14900162      59.31470299       1.13484000
Ne      -1.93414042      63.15095512       1.13484000
Ne      15.09196120      55.55428375       5.62016000
Ne       8.72809838      52.20425428       5.62016000
Ne      14.81124042      48.36800215       5.62016000
Ne      10.66223880      63.39927067       3.38650667
Ne      -8.72809838      66.74930014       3.38650667
Ne      -1.93414042      48.28176082       3.38650667
Ne       2.21486120      62.98888091       1.11682667
Ne      -4.14900162      59.63885143       1.11682667
Ne       1.93414042      55.80259930       1.11682667
Ne      10.66223880      48.53007637       5.63817333
Ne      17.02610162      51.88010584       5.63817333
Ne      10.94295958      55.71635797       5.63817333
Ne       2.21486120      48.11968660       3.36849333
Ne      21.60519838      44.76965713       3.36849333
Ne      14.81124042      63.23719645       3.36849333
Ne       0.00000000      44.60758291       3.37750000
Ne      12.87710000      52.04218006       5.62916667
Ne       0.00000000      59.47677721       1.12583333
Ni       7.58937643      59.05754028       9.13883950
Ni      -3.43161838      66.25898846       9.13883950
Ni      -4.15775805      53.11380289       9.13883950
Ni       5.28772357      52.46141699      11.12616050
Ni      16.30871838      45.25996881      11.12616050
Ni      17.03485805      58.40515438      11.12616050
Ni      -5.28772357      66.49213743      11.39050617
Ni      -3.43161838      51.38979416      11.39050617
Ni       8.71934195      60.54840004      11.39050617
Ni      -7.58937643      59.89601414      13.37782717
Ni       3.43161838      52.69456596      13.37782717
Ni       4.15775805      65.83975153      13.37782717
Ni      20.46647643      51.62294313       6.88717283
Ni       9.44548162      58.82439131       6.88717283
Ni       8.71934195      45.67920574       6.88717283
Ni      18.16482357      45.02681984       8.87449383
Ni      16.30871838      60.12916311       8.87449383
Ni       4.15775805      50.97055723       8.87449383
O        6.02650855      53.70110633       9.70724573
O       14.86572343      45.27993070       9.70724573
O       17.73906802      57.14550315       9.70724573
O        6.85059145      57.81785094      10.55775427
O       -1.98862343      66.23902657      10.55775427
O       -4.86196802      54.37345412      10.55775427
O       -6.85059145      61.13570348      11.95891240
O        1.98862343      52.71452785      11.95891240
O        4.86196802      64.58010030      11.95891240
O       -6.02650855      65.25244809      12.80942094
O       -1.98862343      51.36983227      12.80942094
O        8.01513198      61.80805127      12.80942094
O       18.90360855      46.26650918       7.45557906
O       14.86572343      60.14912500       7.45557906
O        4.86196802      49.71090600       7.45557906
O       19.72769145      50.38325379       8.30608760
O       10.88847657      58.80442942       8.30608760
O        8.01513198      46.93885697       8.30608760
O        4.79252182      52.75765595       8.22896127
O       16.29976879      44.68299203       8.22896127
O       17.53900939      58.68589220       8.22896127
O        8.08457818      58.76130132      12.03603873
O       -3.42266879      66.83596524      12.03603873
O       -4.66190939      52.83306507      12.03603873
O       -8.08457818      60.19225310      10.48062793
O        3.42266879      52.11758918      10.48062793
O        4.66190939      66.12048935      10.48062793
O       -4.79252182      66.19589847       7.53270540
O       -3.42266879      51.96677094       7.53270540
O        8.21519061      60.26766222       7.53270540
O       17.66962182      45.32305880      12.73229460
O       16.29976879      59.55218633      12.73229460
O        4.66190939      51.25129505      12.73229460
O       20.96167818      51.32670417       9.78437207
O        9.45443121      59.40136809       9.78437207
O        8.21519061      45.39846792       9.78437207
O        8.28557684      57.62614985       7.81898005
O       10.33700189      45.27381946       7.81898005
O       20.00872128      53.22657086       7.81898005
O        4.59152316      53.89280742      12.44601995
O        2.54009811      66.24513781      12.44601995
O       -7.13162128      58.29238641      12.44601995
O       -4.59152316      65.06074700      10.07064672
O       -2.54009811      52.70841661      10.07064672
O        7.13162128      60.66116801      10.07064672
O       -8.28557684      61.32740457       7.94268662
O        2.54009811      51.37594351       7.94268662
O        5.74547872      65.72698356       7.94268662
O       21.16267684      50.19155270      12.32231338
O       10.33700189      60.14301377      12.32231338
O        7.13162128      45.79197371      12.32231338
O       17.46862316      46.45821027      10.19435328
O       15.41719811      58.81054066      10.19435328
O        5.74547872      50.85778926      10.19435328
C        5.51419313      53.69109193       8.47859904
C       15.13055387      44.84125973       8.47859904
C       17.98655300      57.59418852       8.47859904
C        7.36290687      57.82786534      11.78640095
C       -2.25345387      66.67769754      11.78640095
C       -5.10945300      53.92476875      11.78640095
C       -7.36290687      61.12568908      10.73026571
C        2.25345387      52.27585688      10.73026571
C        5.10945300      65.02878567      10.73026571
C       -5.51419313      65.26246249       7.28306762
C       -2.25345387      51.80850324       7.28306762
C        7.76764700      61.35936590       7.28306762
C       18.39129313      46.25649478      12.98193238
C       15.13055387      59.71045403      12.98193238
C        5.10945300      50.15959137      12.98193238
C       20.24000687      50.39326819       9.53473429
C       10.62364613      59.24310039       9.53473429
C        7.76764700      46.49017160       9.53473429
C        6.06859092      54.71633031       7.55532564
C       13.96547249      44.80876311       7.55532564
C       18.59723659      56.60144676       7.55532564
C        6.80850908      56.80262696      12.70967436
C       -1.08837249      66.71019416      12.70967436
C       -5.72013659      54.91751051      12.70967436
C       -6.80850908      62.15092746       9.80699231
C        1.08837249      52.24336026       9.80699231
C        5.72013659      64.03604391       9.80699231
C       -6.06859092      64.23722411       8.20634102
C       -1.08837249      51.84099986       8.20634102
C        7.15696341      62.35210766       8.20634102
C       18.94569092      47.28173316      12.05865898
C       13.96547249      59.67795741      12.05865898
C        5.72013659      49.16684961      12.05865898
C       19.68560908      49.36802981      10.45800769
C       11.78872751      59.27559701      10.45800769
C        7.15696341      47.48291336      10.45800769
C        7.33158976      56.84649852       7.28929348
C       11.48919328      44.83746809       7.28929348
C       19.81051695      54.44257357       7.28929348
C        5.54551024      54.67245875      12.97570652
C        1.38790672      66.68148918      12.97570652
C       -6.93341695      57.07638370      12.97570652
C       -5.54551024      64.28109567       9.54096015
C       -1.38790672      52.27206524       9.54096015
C        6.93341695      61.87717072       9.54096015
C       -7.33158976      62.10705590       8.47237319
C        1.38790672      51.81229488       8.47237319
C        5.94368305      64.51098085       8.47237319
C       20.20868976      49.41190137      11.79262681
C       11.48919328      59.70666239      11.79262681
C        6.93341695      47.00797642      11.79262681
C       18.42261024      47.23786160      10.72403985
C       14.26500672      59.24689203      10.72403985
C        5.94368305      49.64178655      10.72403985
C        6.92232977      55.69910227       8.06930009
C       12.68749758      45.05673666       8.06930009
C       19.02147265      55.37070125       8.06930009
C        5.95477023      55.81985500      12.19569991
C        0.18960242      66.46222061      12.19569991
C       -6.14437265      56.14825602      12.19569991
C       -5.95477023      63.13369942      10.32096675
C       -0.18960242      52.49133381      10.32096675
C        6.14437265      62.80529840      10.32096675
C       -6.92232977      63.25445215       7.69236658
C        0.18960242      51.59302631       7.69236658
C        6.73272735      63.58285318       7.69236658
C       19.79942977      48.26450512      12.57263342
C       12.68749758      59.92593096      12.57263342
C        6.14437265      47.93610410      12.57263342
C       18.83187023      48.38525785       9.94403325
C       13.06670242      59.02762346       9.94403325
C        6.73272735      48.71365887       9.94403325
H        7.24671680      55.60879422       8.96831628
H       12.60351313      45.38281809       8.96831628
H       18.78107007      55.13492787       8.96831628
H        5.63038320      55.91016305      11.29668372
H        0.27358687      66.13613918      11.29668372
H       -5.90397007      56.38402940      11.29668372
H       -5.63038320      63.04339137      11.21998295
H       -0.27358687      52.81741524      11.21998295
H        5.90397007      62.56952502      11.21998295
H       -7.24671680      63.34476020       6.79335039
H        0.27358687      51.26694488       6.79335039
H        6.97312993      63.81862656       6.79335039
H       20.12381680      48.17419707      13.47164961
H       12.60351313      60.25201239      13.47164961
H        5.90397007      47.70033072      13.47164961
H       18.50748320      48.47556590       9.04501705
H       13.15068687      58.70154203       9.04501705
H        6.97312993      48.94943225       9.04501705
Ne      -2.21486120      55.96467352       7.88984000
Ne       4.14900162      59.31470299       7.88984000
Ne      -1.93414042      63.15095512       7.88984000
Ne      15.09196120      55.55428375      12.37516000
Ne       8.72809838      52.20425428      12.37516000
Ne      14.81124042      48.36800215      12.37516000
Ne      10.66223880      63.39927067      10.14150667
Ne      -8.72809838      66.74930014      10.14150667
Ne      -1.93414042      48.28176082      10.14150667
Ne       2.21486120      62.98888091       7.87182667
Ne      -4.14900162      59.63885143       7.87182667
Ne       1.93414042      55.80259930       7.87182667
Ne      10.66223880      48.53007637      12.39317333
Ne      17.02610162      51.88010584      12.39317333
Ne      10.94295958      55.71635797      12.39317333
Ne       2.21486120      48.11968660      10.12349333
Ne      21.60519838      44.76965713      10.12349333
Ne      14.81124042      63.23719645      10.12349333
Ne       0.00000000      44.60758291      10.13250000
Ne      12.87710000      52.04218006      12.38416667
Ne       0.00000000      59.47677721       7.88083333
Ni       7.58937643      59.05754028      15.89383950
Ni      -3.43161838      66.25898846      15.89383950
Ni      -4.15775805      53.11380289      15.89383950
Ni       5.28772357      52.46141699      17.88116050
Ni      16.30871838      45.25996881      17.88116050
Ni      17.03485805      58.40515438      17.88116050
Ni      -5.28772357      66.49213743      18.14550617
Ni      -3.43161838      51.38979416      18.14550617
Ni       8.71934195      60.54840004      18.14550617
Ni      -7.58937643      59.89601414      20.13282717
Ni       3.43161838      52.69456596      20.13282717
Ni       4.15775805      65.83975153      20.13282717
Ni      20.46647643      51.62294313      13.64217283
Ni       9.44548162      58.82439131      13.64217283
Ni       8.71934195      45.67920574      13.64217283
Ni      18.16482357      45.02681984      15.62949383
Ni      16.30871838      60.12916311      15.62949383
Ni       4.15775805      50.97055723      15.62949383
O        6.02650855      53.70110633      16.46224573
O       14.86572343      45.27993070      16.46224573
O       17.73906802      57.14550315      16.46224573
O        6.85059145      57.81785094      17.31275427
O       -1.98862343      66.23902657      17.31275427
O       -4.86196802      54.37345412      17.31275427
O       -6.85059145      61.13570348      18.71391240
O        1.98862343      52.71452785      18.71391240
O        4.86196802      64.58010030      18.71391240
O       -6.02650855      65.25244809      19.56442094
O       -1.98862343      51.36983227      19.56442094
O        8.01513198      61.80805127      19.56442094
O       18.90360855      46.26650918      14.21057906
O       14.86572343      60.14912500      14.21057906
O        4.86196802      49.71090600      14.21057906
O       19.72769145      50.38325379      15.06108760
O       10.88847657      58.80442942      15.06108760
O        8.01513198      46.93885697      15.06108760
O        4.79252182      52.75765595      14.98396126
O       16.29976879      44.68299203      14.98396126
O       17.53900939      58.68589220      14.98396126
O        8.08457818      58.76130132      18.79103874
O       -3.42266879      66.83596524      18.79103874
O       -4.66190939      52.83306507      18.79103874
O       -8.08457818      60.19225310      17.23562793
O        3.42266879      52.11758918      17.23562793
O        4.66190939      66.12048935      17.23562793
O       -4.79252182      66.19589847      14.28770540
O       -3.42266879      51.96677094      14.28770540
O        8.21519061      60.26766222      14.28770540
O       17.66962182      45.32305880      19.48729460
O       16.29976879      59.55218633      19.48729460
O        4.66190939      51.25129505      19.48729460
O       20.96167818      51.32670417      16.53937207
O        9.45443121      59.40136809      16.53937207
O        8.21519061      45.39846792      16.53937207
O        8.28557684      57.62614985      14.57398005
O       10.33700189      45.27381946      14.57398005
O       20.00872128      53.22657086      14.57398005
O        4.59152316      53.89280742      19.20101995
O        2.54009811      66.24513781      19.20101995
O       -7.13162128      58.29238641      19.20101995
O       -4.59152316      65.06074700      16.82564672
O       -2.54009811      52.70841661      16.82564672
O        7.13162128      60.66116801      16.82564672
O       -8.28557684      61.32740457      14.69768662
O        2.54009811      51.37594351      14.69768662
O        5.74547872      65.72698356      14.69768662
O       21.16267684      50.19155270      19.07731338
O       10.33700189      60.14301377      19.07731338
O        7.13162128      45.79197371      19.07731338
O       17.46862316      46.45821027      16.94935328
O       15.41719811      58.81054066      16.94935328
O        5.74547872      50.85778926      16.94935328
C        5.51419313      53.69109193      15.23359905
C       15.13055387      44.84125973      15.23359905
C       17.98655300      57.59418852      15.23359905
C        7.36290687      57.82786534      18.54140096
C       -2.25345387      66.67769754      18.54140096
C       -5.10945300      53.92476875      18.54140096
C       -7.36290687      61.12568908      17.48526571
C        2.25345387      52.27585688      17.48526571
C        5.10945300      65.02878567      17.48526571
C       -5.51419313      65.26246249      14.03806762
C       -2.25345387      51.80850324      14.03806762
C        7.76764700      61.35936590      14.03806762
C       18.39129313      46.25649478      19.73693238
C       15.13055387      59.71045403      19.73693238
C        5.10945300      50.15959137      19.73693238
C       20.24000687      50.39326819      16.28973429
C       10.62364613      59.24310039      16.28973429
C        7.76764700      46.49017160      16.28973429
C        6.06859092      54.71633031      14.31032565
C       13.96547249      44.80876311      14.31032565
C       18.59723659      56.60144676      14.31032565
C        6.80850908      56.80262696      19.46467435
C       -1.08837249      66.71019416      19.46467435
C       -5.72013659      54.91751051      19.46467435
C       -6.80850908      62.15092746      16.56199231
C        1.08837249      52.24336026      16.56199231
C        5.72013659      64.03604391      16.56199231
C       -6.06859092      64.23722411      14.96134102
C       -1.08837249      51.84099986      14.96134102
C        7.15696341      62.35210766      14.96134102
C       18.94569092      47.28173316      18.81365898
C       13.96547249      59.67795741      18.81365898
C        5.72013659      49.16684961      18.81365898
C       19.68560908      49.36802981      17.21300769
C       11.78872751      59.27559701      17.21300769
C        7.15696341      47.48291336      17.21300769
C        7.33158976      56.84649852      14.04429348
C       11.48919328      44.83746809      14.04429348
C       19.81051695      54.44257357      14.04429348
C        5.54551024      54.67245875      19.73070652
C        1.38790672      66.68148918      19.73070652
C       -6.93341695      57.07638370      19.73070652
C       -5.54551024      64.28109567      16.29596015
C       -1.38790672      52.27206524      16.29596015
C        6.93341695      61.87717072      16.29596015
C       -7.33158976      62.10705590      15.22737319
C        1.38790672      51.81229488      15.22737319
C        5.94368305      64.51098085      15.22737319
C       20.20868976      49.41190137      18.54762681
C       11.48919328      59.70666239      18.54762681
C        6.93341695      47.00797642      18.54762681
C       18.42261024      47.23786160      17.47903985
C       14.26500672      59.24689203      17.47903985
C        5.94368305      49.64178655      17.47903985
C        6.92232977      55.69910227      14.82430009
C       12.68749758      45.05673666      14.82430009
C       19.02147265      55.37070125      14.82430009
C        5.95477023      55.81985500      18.95069992
C        0.18960242      66.46222061      18.95069992
C       -6.14437265      56.14825602      18.95069992
C       -5.95477023      63.13369942      17.07596675
C       -0.18960242      52.49133381      17.07596675
C        6.14437265      62.80529840      17.07596675
C       -6.92232977      63.25445215      14.44736658
C        0.18960242      51.59302631      14.44736658
C        6.73272735      63.58285318      14.44736658
C       19.79942977      48.26450512      19.32763342
C       12.68749758      59.92593096      19.32763342
C        6.14437265      47.93610410      19.32763342
C       18.83187023      48.38525785      16.69903325
C       13.06670242      59.02762346      16.69903325
C        6.73272735      48.71365887      16.69903325
H        7.24671680      55.60879422      15.72331628
H       12.60351313      45.38281809      15.72331628
H       18.78107007      55.13492787      15.72331628
H        5.63038320      55.91016305      18.05168372
H        0.27358687      66.13613918      18.05168372
H       -5.90397007      56.38402940      18.05168372
H       -5.63038320      63.04339137      17.97498295
H       -0.27358687      52.81741524      17.97498295
H        5.90397007      62.56952502      17.97498295
H       -7.24671680      63.34476020      13.54835039
H        0.27358687      51.26694488      13.54835039
H        6.97312993      63.81862656      13.54835039
H       20.12381680      48.17419707      20.22664961
H       12.60351313      60.25201239      20.22664961
H        5.90397007      47.70033072      20.22664961
H       18.50748320      48.47556590      15.80001705
H       13.15068687      58.70154203      15.80001705
H        6.97312993      48.94943225      15.80001705
Ne      -2.21486120      55.96467352      14.64484000
Ne       4.14900162      59.31470299      14.64484000
Ne      -1.93414042      63.15095512      14.64484000
Ne      15.09196120      55.55428375      19.13016000
Ne       8.72809838      52.20425428      19.13016000
Ne      14.81124042      48.36800215      19.13016000
Ne      10.66223880      63.39927067      16.89650667
Ne      -8.72809838      66.74930014      16.89650667
Ne      -1.93414042      48.28176082      16.89650667
Ne       2.21486120      62.98888091      14.62682667
Ne      -4.14900162      59.63885143      14.62682667
Ne       1.93414042      55.80259930      14.62682667
Ne      10.66223880      48.53007637      19.14817333
Ne      17.02610162      51.88010584      19.14817333
Ne      10.94295958      55.71635797      19.14817333
Ne       2.21486120      48.11968660      16.87849333
Ne      21.60519838      44.76965713      16.87849333
Ne      14.81124042      63.23719645      16.87849333
Ne       0.00000000      44.60758291      16.88750000
Ne      12.87710000      52.04218006      19.13916667
Ne       0.00000000      59.47677721      14.63583333
Ni      59.09777643      14.44995737       2.38383950
Ni      48.07678162      21.65140555       2.38383950
Ni      47.35064195       8.50621998       2.38383950
Ni      56.79612357       7.85383408       4.37116050
Ni      67.81711838       0.65238590       4.37116050
Ni      68.54325805      13.79757147       4.37116050
Ni      46.22067643      21.88455452       4.63550617
Ni      48.07678162       6.78221125       4.63550617
Ni      60.22774195      15.94081714       4.63550617
Ni      43.91902357      15.28843124       6.62282717
Ni      54.94001838       8.08698305       6.62282717
Ni      55.66615805      21.23216862       6.62282717
Ni      71.97487643       7.01536022       0.13217283
Ni      60.95388162      14.21680840       0.13217283
Ni      60.22774195       1.07162283       0.13217283
Ni      69.67322357       0.41923693       2.11949383
Ni      67.81711838      15.52158020       2.11949383
Ni      55.66615805       6.36297432       2.11949383
O       57.53490855       9.09352342       2.95224573
O       66.37412343       0.67234779       2.95224573
O       69.24746802      12.53792024       2.95224573
O       58.35899145      13.21026803       3.80275427
O       49.51977657      21.63144366       3.80275427
O       46.64643198       9.76587121       3.80275427
O       44.65780855      16.52812057       5.20391240
O       53.49702343       8.10694494       5.20391240
O       56.37036802      19.97251739       5.20391240
O       45.48189145      20.64486518       6.05442094
O       49.51977657       6.76224936       6.05442094
O       59.52353198      17.20046837       6.05442094
O       70.41200855       1.65892627       0.70057906
O       66.37412343      15.54154210       0.70057906
O       56.37036802       5.10332309       0.70057906
O       71.23609145       5.77567088       1.55108760
O       62.39687657      14.19684651       1.55108760
O       59.52353198       2.33127406       1.55108760
O       56.30092182       8.15007304       1.47396127
O       67.80816879       0.07540912       1.47396127
O       69.04740939      14.07830929       1.47396127
O       59.59297818      14.15371841       5.28103874
O       48.08573121      22.22838234       5.28103874
O       46.84649061       8.22548216       5.28103874
O       43.42382182      15.58467019       3.72562793
O       54.93106879       7.51000627       3.72562793
O       56.17030939      21.51290644       3.72562793
O       46.71587818      21.58831556       0.77770540
O       48.08573121       7.35918803       0.77770540
O       59.72359061      15.66007931       0.77770540
O       69.17802182       0.71547589       5.97729460
O       67.80816879      14.94460342       5.97729460
O       56.17030939       6.64371214       5.97729460
O       72.47007818       6.71912126       3.02937207
O       60.96283121      14.79378518       3.02937207
O       59.72359061       0.79088501       3.02937207
O       59.79397684      13.01856695       1.06398005
O       61.84540189       0.66623655       1.06398005
O       71.51712128       8.61898795       1.06398005
O       56.09992316       9.28522451       5.69101995
O       54.04849811      21.63755490       5.69101995
O       44.37677872      13.68480350       5.69101995
O       46.91687684      20.45316410       3.31564672
O       48.96830189       8.10083371       3.31564672
O       58.64002128      16.05358511       3.31564672
O       43.22282316      16.71982166       1.18768662
O       54.04849811       6.76836060       1.18768662
O       57.25387872      21.11940065       1.18768662
O       72.67107684       5.58396979       5.56731338
O       61.84540189      15.53543086       5.56731338
O       58.64002128       1.18439080       5.56731338
O       68.97702316       1.85062736       3.43935328
O       66.92559811      14.20295775       3.43935328
O       57.25387872       6.25020635       3.43935328
C       57.02259313       9.08350902       1.72359905
C       66.63895387       0.23367682       1.72359905
C       69.49495300      12.98660561       1.72359905
C       58.87130687      13.22028244       5.03140095
C       49.25494613      22.07011463       5.03140095
C       46.39894700       9.31718584       5.03140095
C       44.14549313      16.51810617       3.97526571
C       53.76185387       7.66827397       3.97526571
C       56.61785300      20.42120276       3.97526571
C       45.99420687      20.65487959       0.52806762
C       49.25494613       7.20092033       0.52806762
C       59.27604700      16.75178299       0.52806762
C       69.89969313       1.64891187       6.22693238
C       66.63895387      15.10287113       6.22693238
C       56.61785300       5.55200846       6.22693238
C       71.74840687       5.78568528       2.77973429
C       62.13204613      14.63551748       2.77973429
C       59.27604700       1.88258869       2.77973429
C       57.57699092      10.10874740       0.80032565
C       65.47387249       0.20118020       0.80032565
C       70.10563659      11.99386385       0.80032565
C       58.31690908      12.19504405       5.95467435
C       50.42002751      22.10261126       5.95467435
C       45.78826341      10.30992760       5.95467435
C       44.69989092      17.54334455       3.05199231
C       52.59677249       7.63577735       3.05199231
C       57.22853659      19.42846101       3.05199231
C       45.43980908      19.62964120       1.45134102
C       50.42002751       7.23341695       1.45134102
C       58.66536341      17.74452475       1.45134102
C       70.45409092       2.67415025       5.30365898
C       65.47387249      15.07037450       5.30365898
C       57.22853659       4.55926670       5.30365898
C       71.19400908       4.76044690       3.70300769
C       63.29712751      14.66801410       3.70300769
C       58.66536341       2.87533045       3.70300769
C       58.83998976      12.23891561       0.53429348
C       62.99759328       0.22988518       0.53429348
C       71.31891695       9.83499066       0.53429348
C       57.05391024      10.06487584       6.22070652
C       52.89630672      22.07390628       6.22070652
C       44.57498305      12.46880079       6.22070652
C       45.96288976      19.67351276       2.78596015
C       50.12049328       7.66448233       2.78596015
C       58.44181695      17.26958782       2.78596015
C       44.17681024      17.49947299       1.71737319
C       52.89630672       7.20471197       1.71737319
C       57.45208305      19.90339794       1.71737319
C       71.71708976       4.80431846       5.03762681
C       62.99759328      15.09907948       5.03762681
C       58.44181695       2.40039351       5.03762681
C       69.93101024       2.63027869       3.96903985
C       65.77340672      14.63930912       3.96903985
C       57.45208305       5.03420364       3.96903985
C       58.43072977      11.09151936       1.31430009
C       64.19589758       0.44915375       1.31430009
C       70.52987265      10.76311834       1.31430009
C       57.46317023      11.21227209       5.44069991
C       51.69800242      21.85463770       5.44069991
C       45.36402735      11.54067312       5.44069991
C       45.55362977      18.52611651       3.56596675
C       51.31879758       7.88375090       3.56596675
C       57.65277265      18.19771549       3.56596675
C       44.58607023      18.64686924       0.93736658
C       51.69800242       6.98544340       0.93736658
C       58.24112735      18.97527027       0.93736658
C       71.30782977       3.65692221       5.81763342
C       64.19589758      15.31834806       5.81763342
C       57.65277265       3.32852119       5.81763342
C       70.34027023       3.77767494       3.18903325
C       64.57510242      14.42004055       3.18903325
C       58.24112735       4.10607596       3.18903325
H       58.75511680      11.00121131       2.21331628
H       64.11191313       0.77523518       2.21331628
H       70.28947007      10.52734496       2.21331628
H       57.13878320      11.30258014       4.54168372
H       51.78198687      21.52855627       4.54168372
H       45.60442993      11.77644650       4.54168372
H       45.87801680      18.43580846       4.46498295
H       51.23481313       8.20983233       4.46498295
H       57.41237007      17.96194211       4.46498295
H       44.26168320      18.73717729       0.03835039
H       51.78198687       6.65936197       0.03835039
H       58.48152993      19.21104365       0.03835039
H       71.63221680       3.56661416       6.71664961
H       64.11191313      15.64442949       6.71664961
H       57.41237007       3.09274781       6.71664961
H       70.01588320       3.86798299       2.29001705
H       64.65908687      14.09395912       2.29001705
H       58.48152993       4.34184934       2.29001705
Ne      49.29353880      11.35709061       1.13484000
Ne      55.65740162      14.70712008       1.13484000
Ne      49.57425958      18.54337221       1.13484000
Ne      66.60036120      10.94670085       5.62016000
Ne      60.23649838       7.59667137       5.62016000
Ne      66.31964042       3.76041924       5.62016000
Ne      62.17063880      18.79168776       3.38650667
Ne      42.78030162      22.14171724       3.38650667
Ne      49.57425958       3.67417791       3.38650667
Ne      53.72326120      18.38129800       1.11682667
Ne      47.35939838      15.03126852       1.11682667
Ne      53.44254042      11.19501639       1.11682667
Ne      62.17063880       3.92249346       5.63817333
Ne      68.53450162       7.27252293       5.63817333
Ne      62.45135958      11.10877506       5.63817333
Ne      53.72326120       3.51210369       3.36849333
Ne      73.11359838       0.16207422       3.36849333
Ne      66.31964042      18.62961354       3.36849333
Ne      51.50840000       0.00000000       3.37750000
Ne      64.38550000       7.43459715       5.62916667
Ne      51.50840000      14.86919430       1.12583333
Ni      59.09777643      14.44995737       9.13883950
Ni      48.07678162      21.65140555       9.13883950
Ni      47.35064195       8.50621998       9.13883950
Ni      56.79612357       7.85383408      11.12616050
Ni      67.81711838       0.65238590      11.12616050
Ni      68.54325805      13.79757147      11.12616050
Ni      46.22067643      21.88455452      11.39050617
Ni      48.07678162       6.78221125      11.39050617
Ni      60.22774195      15.94081714      11.39050617
Ni      43.91902357      15.28843124      13.37782717
Ni      54.94001838       8.08698305      13.37782717
Ni      55.66615805      21.23216862      13.37782717
Ni      71.97487643       7.01536022       6.88717283
Ni      60.95388162      14.21680840       6.88717283
Ni      60.22774195       1.07162283       6.88717283
Ni      69.67322357       0.41923693       8.87449383
Ni      67.81711838      15.52158020       8.87449383
Ni      55.66615805       6.36297432       8.87449383
O       57.53490855       9.09352342       9.70724573
O       66.37412343       0.67234779       9.70724573
O       69.24746802      12.53792024       9.70724573
O       58.35899145      13.21026803      10.55775427
O       49.51977657      21.63144366      10.55775427
O       46.64643198       9.76587121      10.55775427
O       44.65780855      16.52812057      11.95891240
O       53.49702343       8.10694494      11.95891240
O       56.37036802      19.97251739      11.95891240
O       45.48189145      20.64486518      12.80942094
O       49.51977657       6.76224936      12.80942094
O       59.52353198      17.20046837      12.80942094
O       70.41200855       1.65892627       7.45557906
O       66.37412343      15.54154210       7.45557906
O       56.37036802       5.10332309       7.45557906
O       71.23609145       5.77567088       8.30608760
O       62.39687657      14.19684651       8.30608760
O       59.52353198       2.33127406       8.30608760
O       56.30092182       8.15007304       8.22896127
O       67.80816879       0.07540912       8.22896127
O       69.04740939      14.07830929       8.22896127
O       59.59297818      14.15371841      12.03603873
O       48.08573121      22.22838234      12.03603873
O       46.84649061       8.22548216      12.03603873
O       43.42382182      15.58467019      10.48062793
O       54.93106879       7.51000627      10.48062793
O       56.17030939      21.51290644      10.48062793
O       46.71587818      21.58831556       7.53270540
O       48.08573121       7.35918803       7.53270540
O       59.72359061      15.66007931       7.53270540
O       69.17802182       0.71547589      12.73229460
O       67.80816879      14.94460342      12.73229460
O       56.17030939       6.64371214      12.73229460
O       72.47007818       6.71912126       9.78437207
O       60.96283121      14.79378518       9.78437207
O       59.72359061       0.79088501       9.78437207
O       59.79397684      13.01856695       7.81898005
O       61.84540189       0.66623655       7.81898005
O       71.51712128       8.61898795       7.81898005
O       56.09992316       9.28522451      12.44601995
O       54.04849811      21.63755490      12.44601995
O       44.37677872      13.68480350      12.44601995
O       46.91687684      20.45316410      10.07064672
O       48.96830189       8.10083371      10.07064672
O       58.64002128      16.05358511      10.07064672
O       43.22282316      16.71982166       7.94268662
O       54.04849811       6.76836060       7.94268662
O       57.25387872      21.11940065       7.94268662
O       72.67107684       5.58396979      12.32231338
O       61.84540189      15.53543086      12.32231338
O       58.64002128       1.18439080      12.32231338
O       68.97702316       1.85062736      10.19435328
O       66.92559811      14.20295775      10.19435328
O       57.25387872       6.25020635      10.19435328
C       57.02259313       9.08350902       8.47859904
C       66.63895387       0.23367682       8.47859904
C       69.49495300      12.98660561       8.47859904
C       58.87130687      13.22028244      11.78640095
C       49.25494613      22.07011463      11.78640095
C       46.39894700       9.31718584      11.78640095
C       44.14549313      16.51810617      10.73026571
C       53.76185387       7.66827397      10.73026571
C       56.61785300      20.42120276      10.73026571
C       45.99420687      20.65487959       7.28306762
C       49.25494613       7.20092033       7.28306762
C       59.27604700      16.75178299       7.28306762
C       69.89969313       1.64891187      12.98193238
C       66.63895387      15.10287113      12.98193238
C       56.61785300       5.55200846      12.98193238
C       71.74840687       5.78568528       9.53473429
C       62.13204613      14.63551748       9.53473429
C       59.27604700       1.88258869       9.53473429
C       57.57699092      10.10874740       7.55532564
C       65.47387249       0.20118020       7.55532564
C       70.10563659      11.99386385       7.55532564
C       58.31690908      12.19504405      12.70967436
C       50.42002751      22.10261126      12.70967436
C       45.78826341      10.30992760      12.70967436
C       44.69989092      17.54334455       9.80699231
C       52.59677249       7.63577735       9.80699231
C       57.22853659      19.42846101       9.80699231
C       45.43980908      19.62964120       8.20634102
C       50.42002751       7.23341695       8.20634102
C       58.66536341      17.74452475       8.20634102
C       70.45409092       2.67415025      12.05865898
C       65.47387249      15.07037450      12.05865898
C       57.22853659       4.55926670      12.05865898
C       71.19400908       4.76044690      10.45800769
C       63.29712751      14.66801410      10.45800769
C       58.66536341       2.87533045      10.45800769
C       58.83998976      12.23891561       7.28929348
C       62.99759328       0.22988518       7.28929348
C       71.31891695       9.83499066       7.28929348
C       57.05391024      10.06487584      12.97570652
C       52.89630672      22.07390628      12.97570652
C       44.57498305      12.46880079      12.97570652
C       45.96288976      19.67351276       9.54096015
C       50.12049328       7.66448233       9.54096015
C       58.44181695      17.26958782       9.54096015
C       44.17681024      17.49947299       8.47237319
C       52.89630672       7.20471197       8.47237319
C       57.45208305      19.90339794       8.47237319
C       71.71708976       4.80431846      11.79262681
C       62.99759328      15.09907948      11.79262681
C       58.44181695       2.40039351      11.79262681
C       69.93101024       2.63027869      10.72403985
C       65.77340672      14.63930912      10.72403985
C       57.45208305       5.03420364      10.72403985
C       58.43072977      11.09151936       8.06930009
C       64.19589758       0.44915375       8.06930009
C       70.52987265      10.76311834       8.06930009
C       57.46317023      11.21227209      12.19569991
C       51.69800242      21.85463770      12.19569991
C       45.36402735      11.54067312      12.19569991
C       45.55362977      18.52611651      10.32096675
C       51.31879758       7.88375090      10.32096675
C       57.65277265      18.19771549      10.32096675
C       44.58607023      18.64686924       7.69236658
C       51.69800242       6.98544340       7.69236658
C       58.24112735      18.97527027       7.69236658
C       71.30782977       3.65692221      12.57263342
C       64.19589758      15.31834806      12.57263342
C       57.65277265       3.32852119      12.57263342
C       70.34027023       3.77767494       9.94403325
C       64.57510242      14.42004055       9.94403325
C       58.24112735       4.10607596       9.94403325
H       58.75511680      11.00121131       8.96831628
H       64.11191313       0.77523518       8.96831628
H       70.28947007      10.52734496       8.96831628
H       57.13878320      11.30258014      11.29668372
H       51.78198687      21.52855627      11.29668372
H       45.60442993      11.77644650      11.29668372
H       45.87801680      18.43580846      11.21998295
H       51.23481313       8.20983233      11.21998295
H       57.41237007      17.96194211      11.21998295
H       44.26168320      18.73717729       6.79335039
H       51.78198687       6.65936197       6.79335039
H       58.48152993      19.21104365       6.79335039
H       71.63221680       3.56661416      13.47164961
H       64.11191313      15.64442949      13.47164961
H       57.41237007       3.09274781      13.47164961
H       70.01588320       3.86798299       9.04501705
H       64.65908687      14.09395912       9.04501705
H       58.48152993       4.34184934       9.04501705
Ne      49.29353880      11.35709061       7.88984000
Ne      55.65740162      14.70712008       7.88984000
Ne      49.57425958      18.54337221       7.88984000
Ne      66.60036120      10.94670085      12.37516000
Ne      60.23649838       7.59667137      12.37516000
Ne      66.31964042       3.76041924      12.37516000
Ne      62.17063880      18.79168776      10.14150667
Ne      42.78030162      22.14171724      10.14150667
Ne      49.57425958       3.67417791      10.14150667
Ne      53.72326120      18.38129800       7.87182667
Ne      47.35939838      15.03126852       7.87182667
Ne      53.44254042      11.19501639       7.87182667
Ne      62.17063880       3.92249346      12.39317333
Ne      68.53450162       7.27252293      12.39317333
Ne      62.45135958      11.10877506      12.39317333
Ne      53.72326120       3.51210369      10.12349333
Ne      73.11359838       0.16207422      10.12349333
Ne      66.31964042      18.62961354      10.12349333
Ne      51.50840000       0.00000000      10.13250000
Ne      64.38550000       7.43459715      12.38416667
Ne      51.50840000      14.86919430       7.88083333
Ni      59.09777643      14.44995737      15.89383950
Ni      48.07678162      21.65140555      15.89383950
Ni      47.35064195       8.50621998      15.89383950
Ni      56.79612357       7.85383408      17.88116050
Ni      67.81711838       0.65238590      17.88116050
Ni      68.54325805      13.79757147      17.88116050
Ni      46.22067643      21.88455452      18.14550617
Ni      48.07678162       6.78221125      18.14550617
Ni      60.22774195      15.94081714      18.14550617
Ni      43.91902357      15.28843124      20.13282717
Ni      54.94001838       8.08698305      20.13282717
Ni      55.66615805      21.23216862      20.13282717
Ni      71.97487643       7.01536022      13.64217283
Ni      60.95388162      14.21680840      13.64217283
Ni      60.22774195       1.07162283      13.64217283
Ni      69.67322357       0.41923693      15.62949383
Ni      67.81711838      15.52158020      15.62949383
Ni      55.66615805       6.36297432      15.62949383
O       57.53490855       9.09352342      16.46224573
O       66.37412343       0.67234779      16.46224573
O       69.24746802      12.53792024      16.46224573
O       58.35899145      13.21026803      17.31275427
O       49.51977657      21.63144366      17.31275427
O       46.64643198       9.76587121      17.31275427
O       44.65780855      16.52812057      18.71391240
O       53.49702343       8.10694494      18.71391240
O       56.37036802      19.97251739      18.71391240
O       45.48189145      20.64486518      19.56442094
O       49.51977657       6.76224936      19.56442094
O       59.52353198      17.20046837      19.56442094
O       70.41200855       1.65892627      14.21057906
O       66.37412343      15.54154210      14.21057906
O       56.37036802       5.10332309      14.21057906
O       71.23609145       5.77567088      15.06108760
O       62.39687657      14.19684651      15.06108760
O       59.52353198       2.33127406      15.06108760
O       56.30092182       8.15007304      14.98396126
O       67.80816879       0.07540912      14.98396126
O       69.04740939      14.07830929      14.98396126
O       59.59297818      14.15371841      18.79103874
O       48.08573121      22.22838234      18.79103874
O       46.84649061       8.22548216      18.79103874
O       43.42382182      15.58467019      17.23562793
O       54.93106879       7.51000627      17.23562793
O       56.17030939      21.51290644      17.23562793
O       46.71587818      21.58831556      14.28770540
O       48.08573121       7.35918803      14.28770540
O       59.72359061      15.66007931      14.28770540
O       69.17802182       0.71547589      19.48729460
O       67.80816879      14.94460342      19.48729460
O       56.17030939       6.64371214      19.48729460
O       72.47007818       6.71912126      16.53937207
O       60.96283121      14.79378518      16.53937207
O       59.72359061       0.79088501      16.53937207
O       59.79397684      13.01856695      14.57398005
O       61.84540189       0.66623655      14.57398005
O       71.51712128       8.61898795      14.57398005
O       56.09992316       9.28522451      19.20101995
O       54.04849811      21.63755490      19.20101995
O       44.37677872      13.68480350      19.20101995
O       46.91687684      20.45316410      16.82564672
O       48.96830189       8.10083371      16.82564672
O       58.64002128      16.05358511      16.82564672
O       43.22282316      16.71982166      14.69768662
O       54.04849811       6.76836060      14.69768662
O       57.25387872      21.11940065      14.69768662
O       72.67107684       5.58396979      19.07731338
O       61.84540189      15.53543086      19.07731338
O       58.64002128       1.18439080      19.07731338
O       68.97702316       1.85062736      16.94935328
O       66.92559811      14.20295775      16.94935328
O       57.25387872       6.25020635      16.94935328
C       57.02259313       9.08350902      15.23359905
C       66.63895387       0.23367682      15.23359905
C       69.49495300      12.98660561      15.23359905
C       58.87130687      13.22028244      18.54140096
C       49.25494613      22.07011463      18.54140096
C       46.39894700       9.31718584      18.54140096
C       44.14549313      16.51810617      17.48526571
C       53.76185387       7.66827397      17.48526571
C       56.61785300      20.42120276      17.48526571
C       45.99420687      20.65487959      14.03806762
C       49.25494613       7.20092033      14.03806762
C       59.27604700      16.75178299      14.03806762
C       69.89969313       1.64891187      19.73693238
C       66.63895387      15.10287113      19.73693238
C       56.61785300       5.55200846      19.73693238
C       71.74840687       5.78568528      16.28973429
C       62.13204613      14.63551748      16.28973429
C       59.27604700       1.88258869      16.28973429
C       57.57699092      10.10874740      14.31032565
C       65.47387249       0.20118020      14.31032565
C       70.10563659      11.99386385      14.31032565
C       58.31690908      12.19504405      19.46467435
C       50.42002751      22.10261126      19.46467435
C       45.78826341      10.30992760      19.46467435
C       44.69989092      17.54334455      16.56199231
C       52.59677249       7.63577735      16.56199231
C       57.22853659      19.42846101      16.56199231
C       45.43980908      19.62964120      14.96134102
C       50.42002751       7.23341695      14.96134102
C       58.66536341      17.74452475      14.96134102
C       70.45409092       2.67415025      18.81365898
C       65.47387249      15.07037450      18.81365898
C       57.22853659       4.55926670      18.81365898
C       71.19400908       4.76044690      17.21300769
C       63.29712751      14.66801410      17.21300769
C       58.66536341       2.87533045      17.21300769
C       58.83998976      12.23891561      14.04429348
C       62.99759328       0.22988518      14.04429348
C       71.31891695       9.83499066      14.04429348
C       57.05391024      10.06487584      19.73070652
C       52.89630672      22.07390628      19.73070652
C       44.57498305      12.46880079      19.73070652
C       45.96288976      19.67351276      16.29596015
C       50.12049328       7.66448233      16.29596015
C       58.44181695      17.26958782      16.29596015
C       44.17681024      17.49947299      15.22737319
C       52.89630672       7.20471197      15.22737319
C       57.45208305      19.90339794      15.22737319
C       71.71708976       4.80431846      18.54762681
C       62.99759328      15.09907948      18.54762681
C       58.44181695       2.40039351      18.54762681
C       69.93101024       2.63027869      17.47903985
C       65.77340672      14.63930912      17.47903985
C       57.45208305       5.03420364      17.47903985
C       58.43072977      11.09151936      14.82430009
C       64.19589758       0.44915375      14.82430009
C       70.52987265      10.76311834      14.82430009
C       57.46317023      11.21227209      18.95069992
C       51.69800242      21.85463770      18.95069992
C       45.36402735      11.54067312      18.95069992
C       45.55362977      18.52611651      17.07596675
C       51.31879758       7.88375090      17.07596675
C       57.65277265      18.19771549      17.07596675
C       44.58607023      18.64686924      14.44736658
C       51.69800242       6.98544340      14.44736658
C       58.24112735      18.97527027      14.44736658
C       71.30782977       3.65692221      19.32763342
C       64.19589758      15.31834806      19.32763342
C       57.65277265       3.32852119      19.32763342
C       70.34027023       3.77767494      16.69903325
C       64.57510242      14.42004055      16.69903325
C       58.24112735       4.10607596      16.69903325
H       58.75511680      11.00121131      15.72331628
H       64.11191313       0.77523518      15.72331628
H       70.28947007      10.52734496      15.72331628
H       57.13878320      11.30258014      18.05168372
H       51.78198687      21.52855627      18.05168372
H       45.60442993      11.77644650      18.05168372
H       45.87801680      18.43580846      17.97498295
H       51.23481313       8.20983233      17.97498295
H       57.41237007      17.96194211      17.97498295
H       44.26168320      18.73717729      13.54835039
H       51.78198687       6.65936197      13.54835039
H       58.48152993      19.21104365      13.54835039
H       71.63221680       3.56661416      20.22664961
H       64.11191313      15.64442949      20.22664961
H       57.41237007       3.09274781      20.22664961
H       70.01588320       3.86798299      15.80001705
H       64.65908687      14.09395912      15.80001705
H       58.48152993       4.34184934      15.80001705
Ne      49.29353880      11.35709061      14.64484000
Ne      55.65740162      14.70712008      14.64484000
Ne      49.57425958      18.54337221      14.64484000
Ne      66.60036120      10.94670085      19.13016000
Ne      60.23649838       7.59667137      19.13016000
Ne      66.31964042       3.76041924      19.13016000
Ne      62.17063880      18.79168776      16.89650667
Ne      42.78030162      22.14171724      16.89650667
Ne      49.57425958       3.67417791      16.89650667
Ne      53.72326120      18.38129800      14.62682667
Ne      47.35939838      15.03126852      14.62682667
Ne      53.44254042      11.19501639      14.62682667
Ne      62.17063880       3.92249346      19.14817333
Ne      68.53450162       7.27252293      19.14817333
Ne      62.45135958      11.10877506      19.14817333
Ne      53.72326120       3.51210369      16.87849333
Ne      73.11359838       0.16207422      16.87849333
Ne      66.31964042      18.62961354      16.87849333
Ne      51.50840000       0.00000000      16.88750000
Ne      64.38550000       7.43459715      19.13916667
Ne      51.50840000      14.86919430      14.63583333
Ni      46.22067643      36.75374882       2.38383950
Ni      35.19968162      43.95519701       2.38383950
Ni      34.47354195      30.81001144       2.38383950
Ni      43.91902357      30.15762554       4.37116050
Ni      54.94001838      22.95617735       4.37116050
Ni      55.66615805      36.10136292       4.37116050
Ni      33.34357643      44.18834597       4.63550617
Ni      35.19968162      29.08600271       4.63550617
Ni      47.35064195      38.24460859       4.63550617
Ni      31.04192357      37.59222269       6.62282717
Ni      42.06291838      30.39077451       6.62282717
Ni      42.78905805      43.53596007       6.62282717
Ni      59.09777643      29.31915167       0.13217283
Ni      48.07678162      36.52059986       0.13217283
Ni      47.35064195      23.37541429       0.13217283
Ni      56.79612357      22.72302839       2.11949383
Ni      54.94001838      37.82537166       2.11949383
Ni      42.78905805      28.66676577       2.11949383
O       44.65780855      31.39731488       2.95224573
O       53.49702343      22.97613925       2.95224573
O       56.37036802      34.84171169       2.95224573
O       45.48189145      35.51405949       3.80275427
O       36.64267657      43.93523511       3.80275427
O       33.76933198      32.06966267       3.80275427
O       31.78070855      38.83191203       5.20391240
O       40.61992343      30.41073640       5.20391240
O       43.49326802      42.27630884       5.20391240
O       32.60479145      42.94865664       6.05442094
O       36.64267657      29.06604081       6.05442094
O       46.64643198      39.50425982       6.05442094
O       57.53490855      23.96271772       0.70057906
O       53.49702343      37.84533355       0.70057906
O       43.49326802      27.40711454       0.70057906
O       58.35899145      28.07946234       1.55108760
O       49.51977657      36.50063796       1.55108760
O       46.64643198      24.63506552       1.55108760
O       43.42382182      30.45386450       1.47396127
O       54.93106879      22.37920057       1.47396127
O       56.17030939      36.38210075       1.47396127
O       46.71587818      36.45750987       5.28103874
O       35.20863121      44.53217379       5.28103874
O       33.96939061      30.52927362       5.28103874
O       30.54672182      37.88846165       3.72562793
O       42.05396879      29.81379772       3.72562793
O       43.29320939      43.81669790       3.72562793
O       33.83877818      43.89210702       0.77770540
O       35.20863121      29.66297949       0.77770540
O       46.84649061      37.96387077       0.77770540
O       56.30092182      23.01926735       5.97729460
O       54.93106879      37.24839488       5.97729460
O       43.29320939      28.94750360       5.97729460
O       59.59297818      29.02291271       3.02937207
O       48.08573121      37.09757664       3.02937207
O       46.84649061      23.09467646       3.02937207
O       46.91687684      35.32235840       1.06398005
O       48.96830189      22.97002801       1.06398005
O       58.64002128      30.92277941       1.06398005
O       43.22282316      31.58901596       5.69101995
O       41.17139811      43.94134635       5.69101995
O       31.49967872      35.98859495       5.69101995
O       34.03977684      42.75695555       3.31564672
O       36.09120189      30.40462516       3.31564672
O       45.76292128      38.35737656       3.31564672
O       30.34572316      39.02361311       1.18768662
O       41.17139811      29.07215205       1.18768662
O       44.37677872      43.42319211       1.18768662
O       59.79397684      27.88776125       5.56731338
O       48.96830189      37.83922231       5.56731338
O       45.76292128      23.48818226       5.56731338
O       56.09992316      24.15441881       3.43935328
O       54.04849811      36.50674920       3.43935328
O       44.37677872      28.55399780       3.43935328
C       44.14549313      31.38730047       1.72359905
C       53.76185387      22.53746828       1.72359905
C       56.61785300      35.29039707       1.72359905
C       45.99420687      35.52407389       5.03140095
C       36.37784613      44.37390609       5.03140095
C       33.52184700      31.62097730       5.03140095
C       31.26839313      38.82189762       3.97526571
C       40.88475387      29.97206543       3.97526571
C       43.74075300      42.72499422       3.97526571
C       33.11710687      42.95867104       0.52806762
C       36.37784613      29.50471178       0.52806762
C       46.39894700      39.05557445       0.52806762
C       57.02259313      23.95270332       6.22693238
C       53.76185387      37.40666258       6.22693238
C       43.74075300      27.85579991       6.22693238
C       58.87130687      28.08947674       2.77973429
C       49.25494613      36.93930893       2.77973429
C       46.39894700      24.18638014       2.77973429
C       44.69989092      32.41253885       0.80032565
C       52.59677249      22.50497165       0.80032565
C       57.22853659      34.29765531       0.80032565
C       45.43980908      34.49883551       5.95467435
C       37.54292751      44.40640271       5.95467435
C       32.91116341      32.61371905       5.95467435
C       31.82279092      39.84713601       3.05199231
C       39.71967249      29.93956880       3.05199231
C       44.35143659      41.73225246       3.05199231
C       32.56270908      41.93343266       1.45134102
C       37.54292751      29.53720841       1.45134102
C       45.78826341      40.04831621       1.45134102
C       57.57699092      24.97794170       5.30365898
C       52.59677249      37.37416596       5.30365898
C       44.35143659      26.86305816       5.30365898
C       58.31690908      27.06423836       3.70300769
C       50.42002751      36.97180556       3.70300769
C       45.78826341      25.17912190       3.70300769
C       45.96288976      34.54270707       0.53429348
C       50.12049328      22.53367663       0.53429348
C       58.44181695      32.13878212       0.53429348
C       44.17681024      32.36866730       6.22070652
C       40.01920672      44.37769773       6.22070652
C       31.69788305      34.77259224       6.22070652
C       33.08578976      41.97730422       2.78596015
C       37.24339328      29.96827378       2.78596015
C       45.56471695      39.57337927       2.78596015
C       31.29971024      39.80326445       1.71737319
C       40.01920672      29.50850343       1.71737319
C       44.57498305      42.20718940       1.71737319
C       58.83998976      27.10810991       5.03762681
C       50.12049328      37.40287094       5.03762681
C       45.56471695      24.70418497       5.03762681
C       57.05391024      24.93407015       3.96903985
C       52.89630672      36.94310058       3.96903985
C       44.57498305      27.33799509       3.96903985
C       45.55362977      33.39531082       1.31430009
C       51.31879758      22.75294521       1.31430009
C       57.65277265      33.06690979       1.31430009
C       44.58607023      33.51606354       5.44069991
C       38.82090242      44.15842916       5.44069991
C       32.48692735      33.84446457       5.44069991
C       32.67652977      40.82990797       3.56596675
C       38.44169758      30.18754236       3.56596675
C       44.77567265      40.50150694       3.56596675
C       31.70897023      40.95066070       0.93736658
C       38.82090242      29.28923485       0.93736658
C       45.36402735      41.27906172       0.93736658
C       58.43072977      25.96071367       5.81763342
C       51.31879758      37.62213951       5.81763342
C       44.77567265      25.63231264       5.81763342
C       57.46317023      26.08146639       3.18903325
C       51.69800242      36.72383200       3.18903325
C       45.36402735      26.40986742       3.18903325
H       45.87801680      33.30500277       2.21331628
H       51.23481313      23.07902664       2.21331628
H       57.41237007      32.83113641       2.21331628
H       44.26168320      33.60637160       4.54168372
H       38.90488687      43.83234772       4.54168372
H       32.72732993      34.08023795       4.54168372
H       33.00091680      40.73959992       4.46498295
H       38.35771313      30.51362379       4.46498295
H       44.53527007      40.26573356       4.46498295
H       31.38458320      41.04096875       0.03835039
H       38.90488687      28.96315342       0.03835039
H       45.60442993      41.51483510       0.03835039
H       58.75511680      25.87040561       6.71664961
H       51.23481313      37.94822094       6.71664961
H       44.53527007      25.39653926       6.71664961
H       57.13878320      26.17177444       2.29001705
H       51.78198687      36.39775057       2.29001705
H       45.60442993      26.64564080       2.29001705
Ne      36.41643880      33.66088206       1.13484000
Ne      42.78030162      37.01091154       1.13484000
Ne      36.69715958      40.84716367       1.13484000
Ne      53.72326120      33.25049230       5.62016000
Ne      47.35939838      29.90046282       5.62016000
Ne      53.44254042      26.06421069       5.62016000
Ne      49.29353880      41.09547921       3.38650667
Ne      29.90320162      44.44550869       3.38650667
Ne      36.69715958      25.97796937       3.38650667
Ne      40.84616120      40.68508945       1.11682667
Ne      34.48229838      37.33505997       1.11682667
Ne      40.56544042      33.49880784       1.11682667
Ne      49.29353880      26.22628491       5.63817333
Ne      55.65740162      29.57631439       5.63817333
Ne      49.57425958      33.41256652       5.63817333
Ne      40.84616120      25.81589515       3.36849333
Ne      60.23649838      22.46586567       3.36849333
Ne      53.44254042      40.93340500       3.36849333
Ne      38.63130000      22.30379145       3.37750000
Ne      51.50840000      29.73838861       5.62916667
Ne      38.63130000      37.17298576       1.12583333
Ni      46.22067643      36.75374882       9.13883950
Ni      35.19968162      43.95519701       9.13883950
Ni      34.47354195      30.81001144       9.13883950
Ni      43.91902357      30.15762554      11.12616050
Ni      54.94001838      22.95617735      11.12616050
Ni      55.66615805      36.10136292      11.12616050
Ni      33.34357643      44.18834597      11.39050617
Ni      35.19968162      29.08600271      11.39050617
Ni      47.35064195      38.24460859      11.39050617
Ni      31.04192357      37.59222269      13.37782717
Ni      42.06291838      30.39077451      13.37782717
Ni      42.78905805      43.53596007      13.37782717
Ni      59.09777643      29.31915167       6.88717283
Ni      48.07678162      36.52059986       6.88717283
Ni      47.35064195      23.37541429       6.88717283
Ni      56.79612357      22.72302839       8.87449383
Ni      54.94001838      37.82537166       8.87449383
Ni      42.78905805      28.66676577       8.87449383
O       44.65780855      31.39731488       9.70724573
O       53.49702343      22.97613925       9.70724573
O       56.37036802      34.84171169       9.70724573
O       45.48189145      35.51405949      10.55775427
O       36.64267657      43.93523511      10.55775427
O       33.76933198      32.06966267      10.55775427
O       31.78070855      38.83191203      11.95891240
O       40.61992343      30.41073640      11.95891240
O       43.49326802      42.27630884      11.95891240
O       32.60479145      42.94865664      12.80942094
O       36.64267657      29.06604081      12.80942094
O       46.64643198      39.50425982      12.80942094
O       57.53490855      23.96271772       7.45557906
O       53.49702343      37.84533355       7.45557906
O       43.49326802      27.40711454       7.45557906
O       58.35899145      28.07946234       8.30608760
O       49.51977657      36.50063796       8.30608760
O       46.64643198      24.63506552       8.30608760
O       43.42382182      30.45386450       8.22896127
O       54.93106879      22.37920057       8.22896127
O       56.17030939      36.38210075       8.22896127
O       46.71587818      36.45750987      12.03603873
O       35.20863121      44.53217379      12.03603873
O       33.96939061      30.52927362      12.03603873
O       30.54672182      37.88846165      10.48062793
O       42.05396879      29.81379772      10.48062793
O       43.29320939      43.81669790      10.48062793
O       33.83877818      43.89210702       7.53270540
O       35.20863121      29.66297949       7.53270540
O       46.84649061      37.96387077       7.53270540
O       56.30092182      23.01926735      12.73229460
O       54.93106879      37.24839488      12.73229460
O       43.29320939      28.94750360      12.73229460
O       59.59297818      29.02291271       9.78437207
O       48.08573121      37.09757664       9.78437207
O       46.84649061      23.09467646       9.78437207
O       46.91687684      35.32235840       7.81898005
O       48.96830189      22.97002801       7.81898005
O       58.64002128      30.92277941       7.81898005
O       43.22282316      31.58901596      12.44601995
O       41.17139811      43.94134635      12.44601995
O       31.49967872      35.98859495      12.44601995
O       34.03977684      42.75695555      10.07064672
O       36.09120189      30.40462516      10.07064672
O       45.76292128      38.35737656      10.07064672
O       30.34572316      39.02361311       7.94268662
O       41.17139811      29.07215205       7.94268662
O       44.37677872      43.42319211       7.94268662
O       59.79397684      27.88776125      12.32231338
O       48.96830189      37.83922231      12.32231338
O       45.76292128      23.48818226      12.32231338
O       56.09992316      24.15441881      10.19435328
O       54.04849811      36.50674920      10.19435328
O       44.37677872      28.55399780      10.19435328
C       44.14549313      31.38730047       8.47859904
C       53.76185387      22.53746828       8.47859904
C       56.61785300      35.29039707       8.47859904
C       45.99420687      35.52407389      11.78640095
C       36.37784613      44.37390609      11.78640095
C       33.52184700      31.62097730      11.78640095
C       31.26839313      38.82189762      10.73026571
C       40.88475387      29.97206543      10.73026571
C       43.74075300      42.72499422      10.73026571
C       33.11710687      42.95867104       7.28306762
C       36.37784613      29.50471178       7.28306762
C       46.39894700      39.05557445       7.28306762
C       57.02259313      23.95270332      12.98193238
C       53.76185387      37.40666258      12.98193238
C       43.74075300      27.85579991      12.98193238
C       58.87130687      28.08947674       9.53473429
C       49.25494613      36.93930893       9.53473429
C       46.39894700      24.18638014       9.53473429
C       44.69989092      32.41253885       7.55532564
C       52.59677249      22.50497165       7.55532564
C       57.22853659      34.29765531       7.55532564
C       45.43980908      34.49883551      12.70967436
C       37.54292751      44.40640271      12.70967436
C       32.91116341      32.61371905      12.70967436
C       31.82279092      39.84713601       9.80699231
C       39.71967249      29.93956880       9.80699231
C       44.35143659      41.73225246       9.80699231
C       32.56270908      41.93343266       8.20634102
C       37.54292751      29.53720841       8.20634102
C       45.78826341      40.04831621       8.20634102
C       57.57699092      24.97794170      12.05865898
C       52.59677249      37.37416596      12.05865898
C       44.35143659      26.86305816      12.05865898
C       58.31690908      27.06423836      10.45800769
C       50.42002751      36.97180556      10.45800769
C       45.78826341      25.17912190      10.45800769
C       45.96288976      34.54270707       7.28929348
C       50.12049328      22.53367663       7.28929348
C       58.44181695      32.13878212       7.28929348
C       44.17681024      32.36866730      12.97570652
C       40.01920672      44.37769773      12.97570652
C       31.69788305      34.77259224      12.97570652
C       33.08578976      41.97730422       9.54096015
C       37.24339328      29.96827378       9.54096015
C       45.56471695      39.57337927       9.54096015
C       31.29971024      39.80326445       8.47237319
C       40.01920672      29.50850343       8.47237319
C       44.57498305      42.20718940       8.47237319
C       58.83998976      27.10810991      11.79262681
C       50.12049328      37.40287094      11.79262681
C       45.56471695      24.70418497      11.79262681
C       57.05391024      24.93407015      10.72403985
C       52.89630672      36.94310058      10.72403985
C       44.57498305      27.33799509      10.72403985
C       45.55362977      33.39531082       8.06930009
C       51.31879758      22.75294521       8.06930009
C       57.65277265      33.06690979       8.06930009
C       44.58607023      33.51606354      12.19569991
C       38.82090242      44.15842916      12.19569991
C       32.48692735      33.84446457      12.19569991
C       32.67652977      40.82990797      10.32096675
C       38.44169758      30.18754236      10.32096675
C       44.77567265      40.50150694      10.32096675
C       31.70897023      40.95066070       7.69236658
C       38.82090242      29.28923485       7.69236658
C       45.36402735      41.27906172       7.69236658
C       58.43072977      25.96071367      12.57263342
C       51.31879758      37.62213951      12.57263342
C       44.77567265      25.63231264      12.57263342
C       57.46317023      26.08146639       9.94403325
C       51.69800242      36.72383200       9.94403325
C       45.36402735      26.40986742       9.94403325
H       45.87801680      33.30500277       8.96831628
H       51.23481313      23.07902664       8.96831628
H       57.41237007      32.83113641       8.96831628
H       44.26168320      33.60637160      11.29668372
H       38.90488687      43.83234772      11.29668372
H       32.72732993      34.08023795      11.29668372
H       33.00091680      40.73959992      11.21998295
H       38.35771313      30.51362379      11.21998295
H       44.53527007      40.26573356      11.21998295
H       31.38458320      41.04096875       6.79335039
H       38.90488687      28.96315342       6.79335039
H       45.60442993      41.51483510       6.79335039
H       58.75511680      25.87040561      13.47164961
H       51.23481313      37.94822094      13.47164961
H       44.53527007      25.39653926      13.47164961
H       57.13878320      26.17177444       9.04501705
H       51.78198687      36.39775057       9.04501705
H       45.60442993      26.64564080       9.04501705
Ne      36.41643880      33.66088206       7.88984000
Ne      42.78030162      37.01091154       7.88984000
Ne      36.69715958      40.84716367       7.88984000
Ne      53.72326120      33.25049230      12.37516000
Ne      47.35939838      29.90046282      12.37516000
Ne      53.44254042      26.06421069      12.37516000
Ne      49.29353880      41.09547921      10.14150667
Ne      29.90320162      44.44550869      10.14150667
Ne      36.69715958      25.97796937      10.14150667
Ne      40.84616120      40.68508945       7.87182667
Ne      34.48229838      37.33505997       7.87182667
Ne      40.56544042      33.49880784       7.87182667
Ne      49.29353880      26.22628491      12.39317333
Ne      55.65740162      29.57631439      12.39317333
Ne      49.57425958      33.41256652      12.39317333
Ne      40.84616120      25.81589515      10.12349333
Ne      60.23649838      22.46586567      10.12349333
Ne      53.44254042      40.93340500      10.12349333
Ne      38.63130000      22.30379145      10.13250000
Ne      51.50840000      29.73838861      12.38416667
Ne      38.63130000      37.17298576       7.88083333
Ni      46.22067643      36.75374882      15.89383950
Ni      35.19968162      43.95519701      15.89383950
Ni      34.47354195      30.81001144      15.89383950
Ni      43.91902357      30.15762554      17.88116050
Ni      54.94001838      22.95617735      17.88116050
Ni      55.66615805      36.10136292      17.88116050
Ni      33.34357643      44.18834597      18.14550617
Ni      35.19968162      29.08600271      18.14550617
Ni      47.35064195      38.24460859      18.14550617
Ni      31.04192357      37.59222269      20.13282717
Ni      42.06291838      30.39077451      20.13282717
Ni      42.78905805      43.53596007      20.13282717
Ni      59.09777643      29.31915167      13.64217283
Ni      48.07678162      36.52059986      13.64217283
Ni      47.35064195      23.37541429      13.64217283
Ni      56.79612357      22.72302839      15.62949383
Ni      54.94001838      37.82537166      15.62949383
Ni      42.78905805      28.66676577      15.62949383
O       44.65780855      31.39731488      16.46224573
O       53.49702343      22.97613925      16.46224573
O       56.37036802      34.84171169      16.46224573
O       45.48189145      35.51405949      17.31275427
O       36.64267657      43.93523511      17.31275427
O       33.76933198      32.06966267      17.31275427
O       31.78070855      38.83191203      18.71391240
O       40.61992343      30.41073640      18.71391240
O       43.49326802      42.27630884      18.71391240
O       32.60479145      42.94865664      19.56442094
O       36.64267657      29.06604081      19.56442094
O       46.64643198      39.50425982      19.56442094
O       57.53490855      23.96271772      14.21057906
O       53.49702343      37.84533355      14.21057906
O       43.49326802      27.40711454      14.21057906
O       58.35899145      28.07946234      15.06108760
O       49.51977657      36.50063796      15.06108760
O       46.64643198      24.63506552      15.06108760
O       43.42382182      30.45386450      14.98396126
O       54.93106879      22.37920057      14.98396126
O       56.17030939      36.38210075      14.98396126
O       46.71587818      36.45750987      18.79103874
O       35.20863121      44.53217379      18.79103874
O       33.96939061      30.52927362      18.79103874
O       30.54672182      37.88846165      17.23562793
O       42.05396879      29.81379772      17.23562793
O       43.29320939      43.81669790      17.23562793
O       33.83877818      43.89210702      14.28770540
O       35.20863121      29.66297949      14.28770540
O       46.84649061      37.96387077      14.28770540
O       56.30092182      23.01926735      19.48729460
O       54.93106879      37.24839488      19.48729460
O       43.29320939      28.94750360      19.48729460
O       59.59297818      29.02291271      16.53937207
O       48.08573121      37.09757664      16.53937207
O       46.84649061      23.09467646      16.53937207
O       46.91687684      35.32235840      14.57398005
O       48.96830189      22.97002801      14.57398005
O       58.64002128      30.92277941      14.57398005
O       43.22282316      31.58901596      19.20101995
O       41.17139811      43.94134635      19.20101995
O       31.49967872      35.98859495      19.20101995
O       34.03977684      42.75695555      16.82564672
O       36.09120189      30.40462516      16.82564672
O       45.76292128      38.35737656      16.82564672
O       30.34572316      39.02361311      14.69768662
O       41.17139811      29.07215205      14.69768662
O       44.37677872      43.42319211      14.69768662
O       59.79397684      27.88776125      19.07731338
O       48.96830189      37.83922231      19.07731338
O       45.76292128      23.48818226      19.07731338
O       56.09992316      24.15441881      16.94935328
O       54.04849811      36.50674920      16.94935328
O       44.37677872      28.55399780      16.94935328
C       44.14549313      31.38730047      15.23359905
C       53.76185387      22.53746828      15.23359905
C       56.61785300      35.29039707      15.23359905
C       45.99420687      35.52407389      18.54140096
C       36.37784613      44.37390609      18.54140096
C       33.52184700      31.62097730      18.54140096
C       31.26839313      38.82189762      17.48526571
C       40.88475387      29.97206543      17.48526571
C       43.74075300      42.72499422      17.48526571
C       33.11710687      42.95867104      14.03806762
C       36.37784613      29.50471178      14.03806762
C       46.39894700      39.05557445      14.03806762
C       57.02259313      23.95270332      19.73693238
C       53.76185387      37.40666258      19.73693238
C       43.74075300      27.85579991      19.73693238
C       58.87130687      28.08947674      16.28973429
C       49.25494613      36.93930893      16.28973429
C       46.39894700      24.18638014      16.28973429
C       44.69989092      32.41253885      14.31032565
C       52.59677249      22.50497165      14.31032565
C       57.22853659      34.29765531      14.31032565
C       45.43980908      34.49883551      19.46467435
C       37.54292751      44.40640271      19.46467435
C       32.91116341      32.61371905      19.46467435
C       31.82279092      39.84713601      16.56199231
C       39.71967249      29.93956880      16.56199231
C       44.35143659      41.73225246      16.56199231
C       32.56270908      41.93343266      14.96134102
C       37.54292751      29.53720841      14.96134102
C       45.78826341      40.04831621      14.96134102
C       57.57699092      24.97794170      18.81365898
C       52.59677249      37.37416596      18.81365898
C       44.35143659      26.86305816      18.81365898
C       58.31690908      27.06423836      17.21300769
C       50.42002751      36.97180556      17.21300769
C       45.78826341      25.17912190      17.21300769
C       45.96288976      34.54270707      14.04429348
C       50.12049328      22.53367663      14.04429348
C       58.44181695      32.13878212      14.04429348
C       44.17681024      32.36866730      19.73070652
C       40.01920672      44.37769773      19.73070652
C       31.69788305      34.77259224      19.73070652
C       33.08578976      41.97730422      16.29596015
C       37.24339328      29.96827378      16.29596015
C       45.56471695      39.57337927      16.29596015
C       31.29971024      39.80326445      15.22737319
C       40.01920672      29.50850343      15.22737319
C       44.57498305      42.20718940      15.22737319
C       58.83998976      27.10810991      18.54762681
C       50.12049328      37.40287094      18.54762681
C       45.56471695      24.70418497      18.54762681
C       57.05391024      24.93407015      17.47903985
C       52.89630672      36.94310058      17.47903985
C       44.57498305      27.33799509      17.47903985
C       45.55362977      33.39531082      14.82430009
C       51.31879758      22.75294521      14.82430009
C       57.65277265      33.06690979      14.82430009
C       44.58607023      33.51606354      18.95069992
C       38.82090242      44.15842916      18.95069992
C       32.48692735      33.84446457      18.95069992
C       32.67652977      40.82990797      17.07596675
C       38.44169758      30.18754236      17.07596675
C       44.77567265      40.50150694      17.07596675
C       31.70897023      40.95066070      14.44736658
C       38.82090242      29.28923485      14.44736658
C       45.36402735      41.27906172      14.44736658
C       58.43072977      25.96071367      19.32763342
C       51.31879758      37.62213951      19.32763342
C       44.77567265      25.63231264      19.32763342
C       57.46317023      26.08146639      16.69903325
C       51.69800242      36.72383200      16.69903325
C       45.36402735      26.40986742      16.69903325
H       45.87801680      33.30500277      15.72331628
H       51.23481313      23.07902664      15.72331628
H       57.41237007      32.83113641      15.72331628
H       44.26168320      33.60637160      18.05168372
H       38.90488687      43.83234772      18.05168372
H       32.72732993      34.08023795      18.05168372
H       33.00091680      40.73959992      17.97498295
H       38.35771313      30.51362379      17.97498295
H       44.53527007      40.26573356      17.97498295
H       31.38458320      41.04096875      13.54835039
H       38.90488687      28.96315342      13.54835039
H       45.60442993      41.51483510      13.54835039
H       58.75511680      25.87040561      20.22664961
H       51.23481313      37.94822094      20.22664961
H       44.53527007      25.39653926      20.22664961
H       57.13878320      26.17177444      15.80001705
H       51.78198687      36.39775057      15.80001705
H       45.60442993      26.64564080      15.80001705
Ne      36.41643880      33.66088206      14.64484000
Ne      42.78030162      37.01091154      14.64484000
Ne      36.69715958      40.84716367      14.64484000
Ne      53.72326120      33.25049230      19.13016000
Ne      47.35939838      29.90046282      19.13016000
Ne      53.44254042      26.06421069      19.13016000
Ne      49.29353880      41.09547921      16.89650667
Ne      29.90320162      44.44550869      16.89650667
Ne      36.69715958      25.97796937      16.89650667
Ne      40.84616120      40.68508945      14.62682667
Ne      34.48229838      37.33505997      14.62682667
Ne      40.56544042      33.49880784      14.62682667
Ne      49.29353880      26.22628491      19.14817333
Ne      55.65740162      29.57631439      19.14817333
Ne      49.57425958      33.41256652      19.14817333
Ne      40.84616120      25.81589515      16.87849333
Ne      60.23649838      22.46586567      16.87849333
Ne      53.44254042      40.93340500      16.87849333
Ne      38.63130000      22.30379145      16.88750000
Ne      51.50840000      29.73838861      19.13916667
Ne      38.63130000      37.17298576      14.63583333
Ni      33.34357643      59.05754028       2.38383950
Ni      22.32258162      66.25898846       2.38383950
Ni      21.59644195      53.11380289       2.38383950
Ni      31.04192357      52.46141699       4.37116050
Ni      42.06291838      45.25996881       4.37116050
Ni      42.78905805      58.40515438       4.37116050
Ni      20.46647643      66.49213743       4.63550617
Ni      22.32258162      51.38979416       4.63550617
Ni      34.47354195      60.54840004       4.63550617
Ni      18.16482357      59.89601414       6.62282717
Ni      29.18581838      52.69456596       6.62282717
Ni      29.91195805      65.83975153       6.62282717
Ni      46.22067643      51.62294313       0.13217283
Ni      35.19968162      58.82439131       0.13217283
Ni      34.47354195      45.67920574       0.13217283
Ni      43.91902357      45.02681984       2.11949383
Ni      42.06291838      60.12916311       2.11949383
Ni      29.91195805      50.97055723       2.11949383
O       31.78070855      53.70110633       2.95224573
O       40.61992343      45.27993070       2.95224573
O       43.49326802      57.14550315       2.95224573
O       32.60479145      57.81785094       3.80275427
O       23.76557657      66.23902657       3.80275427
O       20.89223198      54.37345412       3.80275427
O       18.90360855      61.13570348       5.20391240
O       27.74282343      52.71452785       5.20391240
O       30.61616802      64.58010030       5.20391240
O       19.72769145      65.25244809       6.05442094
O       23.76557657      51.36983227       6.05442094
O       33.76933198      61.80805127       6.05442094
O       44.65780855      46.26650918       0.70057906
O       40.61992343      60.14912500       0.70057906
O       30.61616802      49.71090600       0.70057906
O       45.48189145      50.38325379       1.55108760
O       36.64267657      58.80442942       1.55108760
O       33.76933198      46.93885697       1.55108760
O       30.54672182      52.75765595       1.47396127
O       42.05396879      44.68299203       1.47396127
O       43.29320939      58.68589220       1.47396127
O       33.83877818      58.76130132       5.28103874
O       22.33153121      66.83596524       5.28103874
O       21.09229061      52.83306507       5.28103874
O       17.66962182      60.19225310       3.72562793
O       29.17686879      52.11758918       3.72562793
O       30.41610939      66.12048935       3.72562793
O       20.96167818      66.19589847       0.77770540
O       22.33153121      51.96677094       0.77770540
O       33.96939061      60.26766222       0.77770540
O       43.42382182      45.32305880       5.97729460
O       42.05396879      59.55218633       5.97729460
O       30.41610939      51.25129505       5.97729460
O       46.71587818      51.32670417       3.02937207
O       35.20863121      59.40136809       3.02937207
O       33.96939061      45.39846792       3.02937207
O       34.03977684      57.62614985       1.06398005
O       36.09120189      45.27381946       1.06398005
O       45.76292128      53.22657086       1.06398005
O       30.34572316      53.89280742       5.69101995
O       28.29429811      66.24513781       5.69101995
O       18.62257872      58.29238641       5.69101995
O       21.16267684      65.06074700       3.31564672
O       23.21410189      52.70841661       3.31564672
O       32.88582128      60.66116801       3.31564672
O       17.46862316      61.32740457       1.18768662
O       28.29429811      51.37594351       1.18768662
O       31.49967872      65.72698356       1.18768662
O       46.91687684      50.19155270       5.56731338
O       36.09120189      60.14301377       5.56731338
O       32.88582128      45.79197371       5.56731338
O       43.22282316      46.45821027       3.43935328
O       41.17139811      58.81054066       3.43935328
O       31.49967872      50.85778926       3.43935328
C       31.26839313      53.69109193       1.72359905
C       40.88475387      44.84125973       1.72359905
C       43.74075300      57.59418852       1.72359905
C       33.11710687      57.82786534       5.03140095
C       23.50074613      66.67769754       5.03140095
C       20.64474700      53.92476875       5.03140095
C       18.39129313      61.12568908       3.97526571
C       28.00765387      52.27585688       3.97526571
C       30.86365300      65.02878567       3.97526571
C       20.24000687      65.26246249       0.52806762
C       23.50074613      51.80850324       0.52806762
C       33.52184700      61.35936590       0.52806762
C       44.14549313      46.25649478       6.22693238
C       40.88475387      59.71045403       6.22693238
C       30.86365300      50.15959137       6.22693238
C       45.99420687      50.39326819       2.77973429
C       36.37784613      59.24310039       2.77973429
C       33.52184700      46.49017160       2.77973429
C       31.82279092      54.71633031       0.80032565
C       39.71967249      44.80876311       0.80032565
C       44.35143659      56.60144676       0.80032565
C       32.56270908      56.80262696       5.95467435
C       24.66582751      66.71019416       5.95467435
C       20.03406341      54.91751051       5.95467435
C       18.94569092      62.15092746       3.05199231
C       26.84257249      52.24336026       3.05199231
C       31.47433659      64.03604391       3.05199231
C       19.68560908      64.23722411       1.45134102
C       24.66582751      51.84099986       1.45134102
C       32.91116341      62.35210766       1.45134102
C       44.69989092      47.28173316       5.30365898
C       39.71967249      59.67795741       5.30365898
C       31.47433659      49.16684961       5.30365898
C       45.43980908      49.36802981       3.70300769
C       37.54292751      59.27559701       3.70300769
C       32.91116341      47.48291336       3.70300769
C       33.08578976      56.84649852       0.53429348
C       37.24339328      44.83746809       0.53429348
C       45.56471695      54.44257357       0.53429348
C       31.29971024      54.67245875       6.22070652
C       27.14210672      66.68148918       6.22070652
C       18.82078305      57.07638370       6.22070652
C       20.20868976      64.28109567       2.78596015
C       24.36629328      52.27206524       2.78596015
C       32.68761695      61.87717072       2.78596015
C       18.42261024      62.10705590       1.71737319
C       27.14210672      51.81229488       1.71737319
C       31.69788305      64.51098085       1.71737319
C       45.96288976      49.41190137       5.03762681
C       37.24339328      59.70666239       5.03762681
C       32.68761695      47.00797642       5.03762681
C       44.17681024      47.23786160       3.96903985
C       40.01920672      59.24689203       3.96903985
C       31.69788305      49.64178655       3.96903985
C       32.67652977      55.69910227       1.31430009
C       38.44169758      45.05673666       1.31430009
C       44.77567265      55.37070125       1.31430009
C       31.70897023      55.81985500       5.44069991
C       25.94380242      66.46222061       5.44069991
C       19.60982735      56.14825602       5.44069991
C       19.79942977      63.13369942       3.56596675
C       25.56459758      52.49133381       3.56596675
C       31.89857265      62.80529840       3.56596675
C       18.83187023      63.25445215       0.93736658
C       25.94380242      51.59302631       0.93736658
C       32.48692735      63.58285318       0.93736658
C       45.55362977      48.26450512       5.81763342
C       38.44169758      59.92593096       5.81763342
C       31.89857265      47.93610410       5.81763342
C       44.58607023      48.38525785       3.18903325
C       38.82090242      59.02762346       3.18903325
C       32.48692735      48.71365887       3.18903325
H       33.00091680      55.60879422       2.21331628
H       38.35771313      45.38281809       2.21331628
H       44.53527007      55.13492787       2.21331628
H       31.38458320      55.91016305       4.54168372
H       26.02778687      66.13613918       4.54168372
H       19.85022993      56.38402940       4.54168372
H       20.12381680      63.04339137       4.46498295
H       25.48061313      52.81741524       4.46498295
H       31.65817007      62.56952502       4.46498295
H       18.50748320      63.34476020       0.03835039
H       26.02778687      51.26694488       0.03835039
H       32.72732993      63.81862656       0.03835039
H       45.87801680      48.17419707       6.71664961
H       38.35771313      60.25201239       6.71664961
H       31.65817007      47.70033072       6.71664961
H       44.26168320      48.47556590       2.29001705
H       38.90488687      58.70154203       2.29001705
H       32.72732993      48.94943225       2.29001705
Ne      23.53933880      55.96467352       1.13484000
Ne      29.90320162      59.31470299       1.13484000
Ne      23.82005958      63.15095512       1.13484000
Ne      40.84616120      55.55428375       5.62016000
Ne      34.48229838      52.20425428       5.62016000
Ne      40.56544042      48.36800215       5.62016000
Ne      36.41643880      63.39927067       3.38650667
Ne      17.02610162      66.74930014       3.38650667
Ne      23.82005958      48.28176082       3.38650667
Ne      27.96906120      62.98888091       1.11682667
Ne      21.60519838      59.63885143       1.11682667
Ne      27.68834042      55.80259930       1.11682667
Ne      36.41643880      48.53007637       5.63817333
Ne      42.78030162      51.88010584       5.63817333
Ne      36.69715958      55.71635797       5.63817333
Ne      27.96906120      48.11968660       3.36849333
Ne      47.35939838      44.76965713       3.36849333
Ne      40.56544042      63.23719645       3.36849333
Ne      25.75420000      44.60758291       3.37750000
Ne      38.63130000      52.04218006       5.62916667
Ne      25.75420000      59.47677721       1.12583333
Ni      33.34357643      59.05754028       9.13883950
Ni      22.32258162      66.25898846       9.13883950
Ni      21.59644195      53.11380289       9.13883950
Ni      31.04192357      52.46141699      11.12616050
Ni      42.06291838      45.25996881      11.12616050
Ni      42.78905805      58.40515438      11.12616050
Ni      20.46647643      66.49213743      11.39050617
Ni      22.32258162      51.38979416      11.39050617
Ni      34.47354195      60.54840004      11.39050617
Ni      18.16482357      59.89601414      13.37782717
Ni      29.18581838      52.69456596      13.37782717
Ni      29.91195805      65.83975153      13.37782717
Ni      46.22067643      51.62294313       6.88717283
Ni      35.19968162      58.82439131       6.88717283
Ni      34.47354195      45.67920574       6.88717283
Ni      43.91902357      45.02681984       8.87449383
Ni      42.06291838      60.12916311       8.87449383
Ni      29.91195805      50.97055723       8.87449383
O       31.78070855      53.70110633       9.70724573
O       40.61992343      45.27993070       9.70724573
O       43.49326802      57.14550315       9.70724573
O       32.60479145      57.81785094      10.55775427
O       23.76557657      66.23902657      10.55775427
O       20.89223198      54.37345412      10.55775427
O       18.90360855      61.13570348      11.95891240
O       27.74282343      52.71452785      11.95891240
O       30.61616802      64.58010030      11.95891240
O       19.72769145      65.25244809      12.80942094
O       23.76557657      51.36983227      12.80942094
O       33.76933198      61.80805127      12.80942094
O       44.65780855      46.26650918       7.45557906
O       40.61992343      60.14912500       7.45557906
O       30.61616802      49.71090600       7.45557906
O       45.48189145      50.38325379       8.30608760
O       36.64267657      58.80442942       8.30608760
O       33.76933198      46.93885697       8.30608760
O       30.54672182      52.75765595       8.22896127
O       42.05396879      44.68299203       8.22896127
O       43.29320939      58.68589220       8.22896127
O       33.83877818      58.76130132      12.03603873
O       22.33153121      66.83596524      12.03603873
O       21.09229061      52.83306507      12.03603873
O       17.66962182      60.19225310      10.48062793
O       29.17686879      52.11758918      10.48062793
O       30.41610939      66.12048935      10.48062793
O       20.96167818      66.19589847       7.53270540
O       22.33153121      51.96677094       7.53270540
O       33.96939061      60.26766222       7.53270540
O       43.42382182      45.32305880      12.73229460
O       42.05396879      59.55218633      12.73229460
O       30.41610939      51.25129505      12.73229460
O       46.71587818      51.32670417       9.78437207
O       35.20863121      59.40136809       9.78437207
O       33.96939061      45.39846792       9.78437207
O       34.03977684      57.62614985       7.81898005
O       36.09120189      45.27381946       7.81898005
O       45.76292128      53.22657086       7.81898005
O       30.34572316      53.89280742      12.44601995
O       28.29429811      66.24513781      12.44601995
O       18.62257872      58.29238641      12.44601995
O       21.16267684      65.06074700      10.07064672
O       23.21410189      52.70841661      10.07064672
O       32.88582128      60.66116801      10.07064672
O       17.46862316      61.32740457       7.94268662
O       28.29429811      51.37594351       7.94268662
O       31.49967872      65.72698356       7.94268662
O       46.91687684      50.19155270      12.32231338
O       36.09120189      60.14301377      12.32231338
O       32.88582128      45.79197371      12.32231338
O       43.22282316      46.45821027      10.19435328
O       41.17139811      58.81054066      10.19435328
O       31.49967872      50.85778926      10.19435328
C       31.26839313      53.69109193       8.47859904
C       40.88475387      44.84125973       8.47859904
C       43.74075300      57.59418852       8.47859904
C       33.11710687      57.82786534      11.78640095
C       23.50074613      66.67769754      11.78640095
C       20.64474700      53.92476875      11.78640095
C       18.39129313      61.12568908      10.73026571
C       28.00765387      52.27585688      10.73026571
C       30.86365300      65.02878567      10.73026571
C       20.24000687      65.26246249       7.28306762
C       23.50074613      51.80850324       7.28306762
C       33.52184700      61.35936590       7.28306762
C       44.14549313      46.25649478      12.98193238
C       40.88475387      59.71045403      12.98193238
C       30.86365300      50.15959137      12.98193238
C       45.99420687      50.39326819       9.53473429
C       36.37784613      59.24310039       9.53473429
C       33.52184700      46.49017160       9.53473429
C       31.82279092      54.71633031       7.55532564
C       39.71967249      44.80876311       7.55532564
C       44.35143659      56.60144676       7.55532564
C       32.56270908      56.80262696      12.70967436
C       24.66582751      66.71019416      12.70967436
C       20.03406341      54.91751051      12.70967436
C       18.94569092      62.15092746       9.80699231
C       26.84257249      52.24336026       9.80699231
C       31.47433659      64.03604391       9.80699231
C       19.68560908      64.23722411       8.20634102
C       24.66582751      51.84099986       8.20634102
C       32.91116341      62.35210766       8.20634102
C       44.69989092      47.28173316      12.05865898
C       39.71967249      59.67795741      12.05865898
C       31.47433659      49.16684961      12.05865898
C       45.43980908      49.36802981      10.45800769
C       37.54292751      59.27559701      10.45800769
C       32.91116341      47.48291336      10.45800769
C       33.08578976      56.84649852       7.28929348
C       37.24339328      44.83746809       7.28929348
C       45.56471695      54.44257357       7.28929348
C       31.29971024      54.67245875      12.97570652
C       27.14210672      66.68148918      12.97570652
C       18.82078305      57.07638370      12.97570652
C       20.20868976      64.28109567       9.54096015
C       24.36629328      52.27206524       9.54096015
C       32.68761695      61.87717072       9.54096015
C       18.42261024      62.10705590       8.47237319
C       27.14210672      51.81229488       8.47237319
C       31.69788305      64.51098085       8.47237319
C       45.96288976      49.41190137      11.79262681
C       37.24339328      59.70666239      11.79262681
C       32.68761695      47.00797642      11.79262681
C       44.17681024      47.23786160      10.72403985
C       40.01920672      59.24689203      10.72403985
C       31.69788305      49.64178655      10.72403985
C       32.67652977      55.69910227       8.06930009
C       38.44169758      45.05673666       8.06930009
C       44.77567265      55.37070125       8.06930009
C       31.70897023      55.81985500      12.19569991
C       25.94380242      66.46222061      12.19569991
C       19.60982735      56.14825602      12.19569991
C       19.79942977      63.13369942      10.32096675
C       25.56459758      52.49133381      10.32096675
C       31.89857265      62.80529840      10.32096675
C       18.83187023      63.25445215       7.69236658
C       25.94380242      51.59302631       7.69236658
C       32.48692735      63.58285318       7.69236658
C       45.55362977      48.26450512      12.57263342
C       38.44169758      59.92593096      12.57263342
C       31.89857265      47.93610410      12.57263342
C       44.58607023      48.38525785       9.94403325
C       38.82090242      59.02762346       9.94403325
C       32.48692735      48.71365887       9.94403325
H       33.00091680      55.60879422       8.96831628
H       38.35771313      45.38281809       8.96831628
H       44.53527007      55.13492787       8.96831628
H       31.38458320      55.91016305      11.29668372
H       26.02778687      66.13613918      11.29668372
H       19.85022993      56.38402940      11.29668372
H       20.12381680      63.04339137      11.21998295
H       25.48061313      52.81741524      11.21998295
H       31.65817007      62.56952502      11.21998295
H       18.50748320      63.34476020       6.79335039
H       26.02778687      51.26694488       6.79335039
H       32.72732993      63.81862656       6.79335039
H       45.87801680      48.17419707      13.47164961
H       38.35771313      60.25201239      13.47164961
H       31.65817007      47.70033072      13.47164961
H       44.26168320      48.47556590       9.04501705
H       38.90488687      58.70154203       9.04501705
H       32.72732993      48.94943225       9.04501705
Ne      23.53933880      55.96467352       7.88984000
Ne      29.90320162      59.31470299       7.88984000
Ne      23.82005958      63.15095512       7.88984000
Ne      40.84616120      55.55428375      12.37516000
Ne      34.48229838      52.20425428      12.37516000
Ne      40.56544042      48.36800215      12.37516000
Ne      36.41643880      63.39927067      10.14150667
Ne      17.02610162      66.74930014      10.14150667
Ne      23.82005958      48.28176082      10.14150667
Ne      27.96906120      62.98888091       7.87182667
Ne      21.60519838      59.63885143       7.87182667
Ne      27.68834042      55.80259930       7.87182667
Ne      36.41643880      48.53007637      12.39317333
Ne      42.78030162      51.88010584      12.39317333
Ne      36.69715958      55.71635797      12.39317333
Ne      27.96906120      48.11968660      10.12349333
Ne      47.35939838      44.76965713      10.12349333
Ne      40.56544042      63.23719645      10.12349333
Ne      25.75420000      44.60758291      10.13250000
Ne      38.63130000      52.04218006      12.38416667
Ne      25.75420000      59.47677721       7.88083333
Ni      33.34357643      59.05754028      15.89383950
Ni      22.32258162      66.25898846      15.89383950
Ni      21.59644195      53.11380289      15.89383950
Ni      31.04192357      52.46141699      17.88116050
Ni      42.06291838      45.25996881      17.88116050
Ni      42.78905805      58.40515438      17.88116050
Ni      20.46647643      66.49213743      18.14550617
Ni      22.32258162      51.38979416      18.14550617
Ni      34.47354195      60.54840004      18.14550617
Ni      18.16482357      59.89601414      20.13282717
Ni      29.18581838      52.69456596      20.13282717
Ni      29.91195805      65.83975153      20.13282717
Ni      46.22067643      51.62294313      13.64217283
Ni      35.19968162      58.82439131      13.64217283
Ni      34.47354195      45.67920574      13.64217283
Ni      43.91902357      45.02681984      15.62949383
Ni      42.06291838      60.12916311      15.62949383
Ni      29.91195805      50.97055723      15.62949383
O       31.78070855      53.70110633      16.46224573
O       40.61992343      45.27993070      16.46224573
O       43.49326802      57.14550315      16.46224573
O       32.60479145      57.81785094      17.31275427
O       23.76557657      66.23902657      17.31275427
O       20.89223198      54.37345412      17.31275427
O       18.90360855      61.13570348      18.71391240
O       27.74282343      52.71452785      18.71391240
O       30.61616802      64.58010030      18.71391240
O       19.72769145      65.25244809      19.56442094
O       23.76557657      51.36983227      19.56442094
O       33.76933198      61.80805127      19.56442094
O       44.65780855      46.26650918      14.21057906
O       40.61992343      60.14912500      14.21057906
O       30.61616802      49.71090600      14.21057906
O       45.48189145      50.38325379      15.06108760
O       36.64267657      58.80442942      15.06108760
O       33.76933198      46.93885697      15.06108760
O       30.54672182      52.75765595      14.98396126
O       42.05396879      44.68299203      14.98396126
O       43.29320939      58.68589220      14.98396126
O       33.83877818      58.76130132      18.79103874
O       22.33153121      66.83596524      18.79103874
O       21.09229061      52.83306507      18.79103874
O       17.66962182      60.19225310      17.23562793
O       29.17686879      52.11758918      17.23562793
O       30.41610939      66.12048935      17.23562793
O       20.96167818      66.19589847      14.28770540
O       22.33153121      51.96677094      14.28770540
O       33.96939061      60.26766222      14.28770540
O       43.42382182      45.32305880      19.48729460
O       42.05396879      59.55218633      19.48729460
O       30.41610939      51.25129505      19.48729460
O       46.71587818      51.32670417      16.53937207
O       35.20863121      59.40136809      16.53937207
O       33.96939061      45.39846792      16.53937207
O       34.03977684      57.62614985      14.57398005
O       36.09120189      45.27381946      14.57398005
O       45.76292128      53.22657086      14.57398005
O       30.34572316      53.89280742      19.20101995
O       28.29429811      66.24513781      19.20101995
O       18.62257872      58.29238641      19.20101995
O       21.16267684      65.06074700      16.82564672
O       23.21410189      52.70841661      16.82564672
O       32.88582128      60.66116801      16.82564672
O       17.46862316      61.32740457      14.69768662
O       28.29429811      51.37594351      14.69768662
O       31.49967872      65.72698356      14.69768662
O       46.91687684      50.19155270      19.07731338
O       36.09120189      60.14301377      19.07731338
O       32.88582128      45.79197371      19.07731338
O       43.22282316      46.45821027      16.94935328
O       41.17139811      58.81054066      16.94935328
O       31.49967872      50.85778926      16.94935328
C       31.26839313      53.69109193      15.23359905
C       40.88475387      44.84125973      15.23359905
C       43.74075300      57.59418852      15.23359905
C       33.11710687      57.82786534      18.54140096
C       23.50074613      66.67769754      18.54140096
C       20.64474700      53.92476875      18.54140096
C       18.39129313      61.12568908      17.48526571
C       28.00765387      52.27585688      17.48526571
C       30.86365300      65.02878567      17.48526571
C       20.24000687      65.26246249      14.03806762
C       23.50074613      51.80850324      14.03806762
C       33.52184700      61.35936590      14.03806762
C       44.14549313      46.25649478      19.73693238
C       40.88475387      59.71045403      19.73693238
C       30.86365300      50.15959137      19.73693238
C       45.99420687      50.39326819      16.28973429
C       36.37784613      59.24310039      16.28973429
C       33.52184700      46.49017160      16.28973429
C       31.82279092      54.71633031      14.31032565
C       39.71967249      44.80876311      14.31032565
C       44.35143659      56.60144676      14.31032565
C       32.56270908      56.80262696      19.46467435
C       24.66582751      66.71019416      19.46467435
C       20.03406341      54.91751051      19.46467435
C       18.94569092      62.15092746      16.56199231
C       26.84257249      52.24336026      16.56199231
C       31.47433659      64.03604391      16.56199231
C       19.68560908      64.23722411      14.96134102
C       24.66582751      51.84099986      14.96134102
C       32.91116341      62.35210766      14.96134102
C       44.69989092      47.28173316      18.81365898
C       39.71967249      59.67795741      18.81365898
C       31.47433659      49.16684961      18.81365898
C       45.43980908      49.36802981      17.21300769
C       37.54292751      59.27559701      17.21300769
C       32.91116341      47.48291336      17.21300769
C       33.08578976      56.84649852      14.04429348
C       37.24339328      44.83746809      14.04429348
C       45.56471695      54.44257357      14.04429348
C       31.29971024      54.67245875      19.73070652
C       27.14210672      66.68148918      19.73070652
C       18.82078305      57.07638370      19.73070652
C       20.20868976      64.28109567      16.29596015
C       24.36629328      52.27206524      16.29596015
C       32.68761695      61.87717072      16.29596015
C       18.42261024      62.10705590      15.22737319
C       27.14210672      51.81229488      15.22737319
C       31.69788305      64.51098085      15.22737319
C       45.96288976      49.41190137      18.54762681
C       37.24339328      59.70666239      18.54762681
C       32.68761695      47.00797642      18.54762681
C       44.17681024      47.23786160      17.47903985
C       40.01920672      59.24689203      17.47903985
C       31.69788305      49.64178655      17.47903985
C       32.67652977      55.69910227      14.82430009
C       38.44169758      45.05673666      14.82430009
C       44.77567265      55.37070125      14.82430009
C       31.70897023      55.81985500      18.95069992
C       25.94380242      66.46222061      18.95069992
C       19.60982735      56.14825602      18.95069992
C       19.79942977      63.13369942      17.07596675
C       25.56459758      52.49133381      17.07596675
C       31.89857265      62.80529840      17.07596675
C       18.83187023      63.25445215      14.44736658
C       25.94380242      51.59302631      14.44736658
C       32.48692735      63.58285318      14.44736658
C       45.55362977      48.26450512      19.32763342
C       38.44169758      59.92593096      19.32763342
C       31.89857265      47.93610410      19.32763342
C       44.58607023      48.38525785      16.69903325
C       38.82090242      59.02762346      16.69903325
C       32.48692735      48.71365887      16.69903325
H       33.00091680      55.60879422      15.72331628
H       38.35771313      45.38281809      15.72331628
H       44.53527007      55.13492787      15.72331628
H       31.38458320      55.91016305      18.05168372
H       26.02778687      66.13613918      18.05168372
H       19.85022993      56.38402940      18.05168372
H       20.12381680      63.04339137      17.97498295
H       25.48061313      52.81741524      17.97498295
H       31.65817007      62.56952502      17.97498295
H       18.50748320      63.34476020      13.54835039
H       26.02778687      51.26694488      13.54835039
H       32.72732993      63.81862656      13.54835039
H       45.87801680      48.17419707      20.22664961
H       38.35771313      60.25201239      20.22664961
H       31.65817007      47.70033072      20.22664961
H       44.26168320      48.47556590      15.80001705
H       38.90488687      58.70154203      15.80001705
H       32.72732993      48.94943225      15.80001705
Ne      23.53933880      55.96467352      14.64484000
Ne      29.90320162      59.31470299      14.64484000
Ne      23.82005958      63.15095512      14.64484000
Ne      40.84616120      55.55428375      19.13016000
Ne      34.48229838      52.20425428      19.13016000
Ne      40.56544042      48.36800215      19.13016000
Ne      36.41643880      63.39927067      16.89650667
Ne      17.02610162      66.74930014      16.89650667
Ne      23.82005958      48.28176082      16.89650667
Ne      27.96906120      62.98888091      14.62682667
Ne      21.60519838      59.63885143      14.62682667
Ne      27.68834042      55.80259930      14.62682667
Ne      36.41643880      48.53007637      19.14817333
Ne      42.78030162      51.88010584      19.14817333
Ne      36.69715958      55.71635797      19.14817333
Ne      27.96906120      48.11968660      16.87849333
Ne      47.35939838      44.76965713      16.87849333
Ne      40.56544042      63.23719645      16.87849333
Ne      25.75420000      44.60758291      16.88750000
Ne      38.63130000      52.04218006      19.13916667
Ne      25.75420000      59.47677721      14.63583333
