622
PsGQuadraplex
O         -7.70700        3.60600       10.71500
C         -7.74300        3.53800        9.28300
C         -7.90200        4.93100        8.72400
O         -9.25300        5.41700        9.03500
C         -7.00000        6.01800        9.29700
O         -6.70300        6.99300        8.33400
C         -7.81000        6.66600       10.40300
C         -9.21500        6.57600        9.85000
N        -10.28300        6.48600       10.83100
C        -11.07900        7.60200       11.07800
O        -10.87300        8.65200       10.48800
N        -12.12900        7.42400       11.92200
C        -12.37500        6.26900       12.59400
O        -13.34300        6.24000       13.41000
C        -11.47100        5.18400       12.41400
C        -11.66400        3.89200       13.16500
C        -10.48700        5.32900       11.52000
P         -5.73400        6.84700        7.10100
O         -4.67900        5.83900        7.40900
O         -5.28800        8.18800        6.69300
O         -6.68600        6.22200        5.94700
C         -7.86400        6.96500        5.53200
C         -8.38400        6.35100        4.25500
O         -7.47700        6.67000        3.17900
C         -8.52500        4.85000        4.32000
O         -9.72500        4.58700        3.54900
C         -7.27600        4.35400        3.61100
C         -6.99200        5.46900        2.62000
N         -5.62200        5.64900        2.29000
C         -4.61800        5.91500        3.19100
N         -3.43100        5.96700        2.65400
C         -3.65000        5.73400        1.30800
C         -2.75300        5.65500        0.22600
O         -1.50900        5.72200        0.25300
N         -3.37900        5.40300       -0.97900
C         -4.73200        5.29700       -1.12200
N         -5.17000        5.09500       -2.36300
N         -5.60500        5.37500       -0.12700
C         -4.99800        5.55500        1.06800
P        -10.20100        3.09800        3.19300
O        -11.68500        3.14400        3.17600
O         -9.54400        2.08400        4.04800
O         -9.64400        2.87000        1.69600
C        -10.26800        3.53800        0.60300
C        -10.04000        2.71600       -0.63900
O         -8.64800        2.88000       -1.07200
C        -10.25200        1.21600       -0.47000
O        -10.90800        0.77200       -1.68000
C         -8.86300        0.68800       -0.30100
C         -8.00200        1.61300       -1.11400
N         -6.65500        1.79200       -0.58600
C         -6.31200        2.09100        0.72300
N         -5.03800        2.26200        0.90300
C         -4.49200        2.08100       -0.37100
C         -3.15000        2.11900       -0.81700
O         -2.14100        2.38800       -0.15600
N         -3.04000        1.84300       -2.16400
C         -4.08700        1.56700       -2.97900
N         -3.78800        1.26700       -4.26400
N         -5.35300        1.50500       -2.60000
C         -5.48500        1.80300       -1.28800
P        -11.25100       -0.78100       -1.90100
O        -12.49700       -0.82000       -2.69700
O        -11.28100       -1.53500       -0.61800
O        -10.00600       -1.30100       -2.75800
C         -9.84300       -0.79300       -4.09000
C         -8.71300       -1.50200       -4.73500
O         -7.49900       -1.09600       -4.07200
C         -8.78900       -3.02300       -4.61800
O         -8.82500       -3.50400       -5.97600
C         -7.53900       -3.44800       -3.85000
C         -6.62800       -2.23800       -4.05900
N         -5.68400       -1.97500       -2.96700
C         -5.97300       -1.65300       -1.65300
N         -4.93400       -1.33600       -0.95800
C         -3.86500       -1.51900       -1.82200
C         -2.46800       -1.39200       -1.62400
O         -1.90200       -1.00800       -0.59100
N         -1.72900       -1.68400       -2.74200
C         -2.26100       -2.07700       -3.93100
N         -1.41700       -2.44600       -4.89700
N         -3.58700       -2.18000       -4.16700
C         -4.31400       -1.90500       -3.07200
P         -8.85500       -5.04900       -6.32300
O         -9.51700       -5.12500       -7.64300
O         -9.47300       -5.84800       -5.22200
O         -7.29900       -5.48800       -6.39400
C         -6.54500       -4.97600       -7.49600
C         -5.18000       -5.61100       -7.39100
O         -4.44500       -5.04000       -6.27600
C         -5.15200       -7.10200       -7.11400
O         -4.29900       -7.68000       -8.09800
C         -4.71400       -7.26000       -5.66200
C         -3.72800       -6.09400       -5.61300
N         -3.49100       -5.66700       -4.24300
C         -4.37500       -5.31800       -3.27100
N         -3.80200       -4.91800       -2.17000
C         -2.43600       -5.08400       -2.42000
C         -1.30400       -4.86800       -1.59800
O         -1.30100       -4.42000       -0.43700
N         -0.11000       -5.18400       -2.21100
C         -0.01600       -5.67100       -3.46900
N          1.20000       -6.03000       -3.89000
N         -1.06100       -5.83600       -4.29500
C         -2.22700       -5.55600       -3.70000
P         -4.03000       -9.24800       -8.18000
O         -3.86400       -9.52100       -9.62100
O         -5.09100      -10.03700       -7.50000
O         -2.65900       -9.43600       -7.35400
C         -1.44500       -8.92600       -7.94100
C         -0.32000       -9.41400       -7.06100
O         -0.43100       -8.84100       -5.75200
C         -0.30800      -10.93000       -6.88900
O          0.80000      -11.49400       -7.62300
C         -0.11200      -11.12500       -5.38500
C          0.27800       -9.73000       -4.90600
N         -0.23400       -9.39500       -3.52800
C          0.66100       -9.21100       -2.49400
O          1.86300       -9.38900       -2.64400
N          0.14000       -8.71900       -1.33400
C         -1.18400       -8.49000       -1.13200
O         -1.52800       -7.97400       -0.03300
C         -2.09500       -8.79600       -2.19800
C         -3.57000       -8.63300       -1.99300
C         -1.58300       -9.22700       -3.35200
C          9.71400        3.96400        9.04300
C         10.30900        4.75100        7.89400
O         11.70000        4.48000        7.64900
C          9.59800        4.50300        6.57400
O          9.50900        5.71300        5.85500
C         10.51500        3.47100        5.94500
C         11.86100        4.05700        6.32300
N         12.94800        3.13600        6.31800
C         13.90900        3.34800        5.36200
O         13.79600        4.19800        4.47800
N         14.99100        2.49300        5.37400
C         15.10500        1.47100        6.25900
O         16.16600        0.78300        6.21100
C         14.07300        1.26700        7.22200
C         14.22200        0.18900        8.26700
C         13.03200        2.10000        7.19700
P          8.27200        5.93800        4.87500
O          8.09500        4.81300        3.91000
O          8.46300        7.28100        4.32200
O          7.01000        5.85500        5.85100
C          6.91000        6.80700        6.89600
C          5.52800        6.67000        7.50900
O          4.50800        7.01100        6.53800
C          5.14600        5.30000        8.00500
O          4.30500        5.71000        9.13000
O          4.51100        4.92300        8.98600
C          4.42300        4.69200        6.78700
C          3.68000        5.89600        6.22000
N          3.50900        5.88700        4.79900
C          4.43200        5.69000        3.81000
N          3.94700        5.66000        2.61300
C          2.57700        5.82700        2.80100
C          1.49600        5.80700        1.88200
O          1.58500        5.61900        0.65700
N          0.27300        5.97300        2.48300
C          0.09300        6.14800        3.83200
N         -1.14900        6.37100        4.23700
N          1.07800        6.16600        4.71900
C          2.29000        5.97900        4.14700
P          3.59500        4.64800       10.10600
P          3.78400        3.69300        9.53200
O          3.53500        5.26700       11.42300
O          3.90700        3.63300       10.94900
O          4.26400        3.38200        9.87500
O          4.36800        2.56500        8.75500
O          2.14600        4.35900        9.42300
O          2.34600        3.65000        9.05600
C          1.14100        5.27000        9.74100
C          1.27100        4.75700        9.54100
C         -0.14200        4.53500        9.44500
O         -0.40100        4.51200        8.01400
C         -0.32000        3.11200        9.93400
O         -1.67900        3.14900       10.43300
C         -0.16500        2.28600        8.67400
C         -0.72100        3.18100        7.59500
N         -0.14800        2.96000        6.28600
C          1.20300        2.91400        5.96100
N          1.40600        2.80700        4.67600
C          0.13200        2.81300        4.11000
C         -0.29900        2.72000        2.76900
O          0.42900        2.66100        1.75500
N         -1.66900        2.74600        2.63000
C         -2.52100        2.78800        3.70700
N         -3.83600        2.72400        3.43700
N         -2.15900        2.89600        4.96200
C         -0.81600        2.90600        5.10300
P         -2.25700        1.93600       11.27300
O         -3.08300        2.53200       12.33300
O         -1.12000        1.08900       11.79800
O         -3.08900        1.08400       10.21300
C         -4.36600        1.58500        9.75400
C         -4.92200        0.58100        8.76000
O         -4.15900        0.71800        7.54500
C         -4.62000       -0.85600        9.18900
O         -5.82000       -1.55600        8.96200
C         -3.48700       -1.40800        8.33900
C         -3.87000       -0.61000        7.08600
N         -2.83800       -0.52100        6.10600
C         -1.50900       -0.39100        6.34700
N         -0.79300       -0.30000        5.26400
C         -1.70200       -0.47900        4.23400
C         -1.53500       -0.52600        2.81900
O         -0.45100       -0.46600        2.21500
N         -2.69800       -0.68900        2.11800
C         -3.91400       -0.77200        2.72600
N         -4.96600       -0.95000        1.92100
N         -4.11800       -0.71600        4.04200
C         -2.97400       -0.63200        4.74100
P         -6.45400       -2.68800        9.88200
O         -7.38800       -2.01100       10.79700
O         -5.41700       -3.47800       10.62400
O         -7.19500       -3.60500        8.78200
C         -8.20500       -2.89800        8.01800
C         -8.37100       -3.75500        6.77300
O         -7.26700       -3.41700        5.91400
C         -8.21400       -5.26200        6.88000
O         -9.17300       -5.80500        5.97000
C         -6.88500       -5.73100        6.31500
C         -6.66300       -4.58000        5.35900
N         -5.32100       -4.32000        5.02300
C         -4.28300       -4.10300        5.89500
N         -3.14400       -3.89100        5.31200
C         -3.44400       -4.00200        3.95400
C         -2.61700       -3.91100        2.79300
O         -1.39500       -3.72200        2.77300
N         -3.29800       -4.09100        1.61500
C         -4.62500       -4.35600        1.55200
N         -5.14400       -4.46000        0.31100
N         -5.43300       -4.42700        2.60100
C         -4.77300       -4.27700        3.76000
P        -10.33500       -6.86200        6.21500
O          7.10500        2.69900       -7.67300
C          8.28600        3.50900       -7.63900
C          8.76600        3.44000       -6.17900
O          7.86400        4.23700       -5.37500
C          8.82100        2.05400       -5.57900
O          9.99900        1.99000       -4.77000
C          7.54400        1.99900       -4.76500
C          7.35000        3.43500       -4.33400
N          5.98500        3.77800       -4.11100
C          4.97600        3.66500       -5.04900
N          3.81600        4.03700       -4.60200
C          4.04600        4.35300       -3.26600
C          3.16400        4.76300       -2.23900
O          1.91900        4.83900       -2.32700
N          3.78300        5.00100       -1.04200
C          5.14500        4.88100       -0.87300
N          5.59200        5.15400        0.36100
N          5.99500        4.48400       -1.79900
C          5.38300        4.22700       -2.96400
P         10.35100        0.68600       -3.87300
O         11.81600        0.56400       -3.95500
O          9.52800       -0.48500       -4.26000
O          9.87500        1.15900       -2.40200
C         10.51300        2.25100       -1.75600
C         10.27300        2.15800       -0.29400
O          8.91100        2.48500        0.02000
C         10.53100        0.76600        0.23800
O         11.09300        0.95900        1.55200
C          9.13000        0.20600        0.36900
C          8.23500        1.39400        0.62500
N          6.88800        1.32400        0.03200
C          6.55800        1.07500       -1.26600
N          5.27400        1.23200       -1.52900
C          4.74400        1.61900       -0.29200
C          3.40700        1.90000        0.08600
O          2.38400        1.89900       -0.62100
N          3.27400        2.20100        1.42300
C          4.31700        2.15700        2.29900
N          4.02600        2.47400        3.57100
N          5.57700        1.90400        1.96900
C          5.72200        1.67500        0.65400
P         11.69500       -0.25500        2.40500
O         12.85000        0.28200        3.11200
O         11.93200       -1.46300        1.55600
O         10.48500       -0.63200        3.39500
C         10.21600        0.35100        4.41000
C          9.06300       -0.22400        5.21000
O          7.86000       -0.05800        4.44300
C          9.07300       -1.69600        5.63200
O          8.97100       -1.47900        7.04700
C          8.07700       -2.32100        4.66300
C          7.04700       -1.20100        4.63600
N          6.13300       -1.23000        3.57100
C          6.41400       -1.44900        2.24500
N          5.35700       -1.43900        1.48100
C          4.31500       -1.14500        2.33900
C          2.92800       -0.95700        2.11200
O          2.34500       -0.97400        1.02000
N          2.20800       -0.68300        3.25600
C          2.79200       -0.58400        4.48800
N          1.96700       -0.38900        5.53300
N          4.08200       -0.78700        4.76500
C          4.77600       -1.05300        3.63400
P          9.16200       -2.73700        8.03800
O         10.14100       -2.29600        9.03100
O          9.51500       -3.96300        7.26700
O          7.66600       -2.95100        8.60200
C          7.02200       -2.16200        9.60800
C          5.82500       -3.07500        9.78900
O          5.00700       -2.86300        8.61900
C          5.89600       -4.57600       10.05700
O          5.04500       -4.79700       11.18300
C          5.22600       -5.17100        8.84100
C          4.28500       -4.06300        8.37800
N          4.01000       -4.08600        6.92700
C          4.90500       -4.21300        5.89600
N          4.35600       -4.15700        4.71100
C          3.00700       -4.01300        4.96800
C          1.88100       -3.88500        4.10600
O          1.88400       -3.92600        2.86000
N          0.68200       -3.70500        4.75500
C          0.58700       -3.68600        6.11800
N         -0.65100       -3.52100        6.61400
N          1.60400       -3.83200        6.96300
C          2.78000       -3.93300        6.32600
P          5.32600       -6.03300       12.16400
O          6.60500       -5.67200       12.81300
O          5.35800       -7.32600       11.44300
O          4.07100       -6.00700       13.16800
C          3.90700       -4.84000       14.00300
C          2.92700       -5.36200       15.05000
O          3.72700       -6.24600       15.88100
C          2.43100       -4.33700       16.05900
O          1.16900       -4.81300       16.52900
C          3.53700       -4.23900       17.09700
C          3.82000       -5.71400       17.20500
N          5.25600       -5.97000       17.62300
C          5.45600       -6.12300       18.98900
O          4.53900       -6.03600       19.79400
N          6.75000       -6.29200       19.40000
C          7.81800       -6.26000       18.55400
O          8.97300       -6.37200       19.07500
C          7.57800       -6.09600       17.15600
C          8.72200       -6.13400       16.19300
C          6.30600       -5.96100       16.76100
O         -9.23100       -0.64400       -8.65700
C         -9.34100        0.43500       -9.61100
C         -9.97300        1.67400       -8.99200
O        -11.38200        1.40800       -8.74000
C         -9.32100        2.11100       -7.68400
O         -9.24700        3.56300       -7.61100
C        -10.26300        1.52100       -6.66100
C        -11.61300        1.63600       -7.36600
N        -12.54400        0.60500       -6.90400
C        -13.67600        0.93000       -6.21000
O        -14.04900        2.09300       -6.04500
N        -14.47100       -0.10600       -5.81300
C        -14.08600       -1.40800       -5.89100
O        -14.87300       -2.26500       -5.44300
C        -12.89600       -1.72000       -6.61900
C        -12.51600       -3.15100       -6.85000
C        -12.16300       -0.69500       -7.09200
P         -8.00600        4.15100       -6.81600
O         -7.88300        3.52400       -5.46200
O         -8.18900        5.61400       -6.85100
O         -6.71500        3.65600       -7.64600
C         -6.53200        4.02800       -9.00800
C         -5.19500        3.46300       -9.44100
O         -4.12600        4.13700       -8.71500
C         -5.05300        1.97500       -9.15000
O         -4.28800        1.45600      -10.24200
C         -4.26200        1.96200       -7.84500
C         -3.42000        3.23100       -7.89000
N         -3.13500        3.81000       -6.64100
C         -4.04900        4.15200       -5.68900
N         -3.52900        4.53700       -4.57100
C         -2.15500        4.42500       -4.77900
C         -1.05700        4.65700       -3.92000
O         -1.11900        5.00100       -2.72000
N          0.15600        4.42000       -4.52700
C          0.30100        4.02100       -5.81500
N          1.55900        3.87900       -6.25200
N         -0.70400        3.75000       -6.63200
C         -1.90300        3.98100       -6.06500
P         -3.81700       -0.07000      -10.28400
O         -3.95000       -0.45800      -11.70300
O         -4.56800       -0.88700       -9.28000
O         -2.27200        0.00300       -9.78400
C         -1.36500        0.63600      -10.68600
C          0.01400        0.08700      -10.29200
O          0.52700        0.66100       -9.07000
C          0.13500       -1.41700      -10.12700
O          1.39800       -1.75800      -10.72600
C          0.08700       -1.61300       -8.60100
C          0.74200       -0.33600       -8.08400
N          0.26300        0.06800       -6.80400
C         -1.05300        0.30800       -6.49200
N         -1.22900        0.79600       -5.29400
C          0.07200        0.87500       -4.77600
C          0.54700        1.28600       -3.50200
O         -0.13800        1.69900       -2.54300
N          1.90600        1.21100       -3.37500
C          2.72900        0.75700       -4.36700
N          4.04200        0.71600       -4.06600
N          2.32800        0.38100       -5.58200
C          0.99000        0.46100       -5.70900
P          1.92300       -3.27600      -10.74200
O          2.59100       -3.42800      -12.04700
O          0.81400       -4.23800      -10.47300
O          2.96800       -3.31500       -9.51200
C          4.21900       -2.61100       -9.64000
C          5.05400       -3.00200       -8.45900
O          4.43800       -2.46300       -7.27100
C          5.22000       -4.50300       -8.26200
O          6.63900       -4.69700       -8.12900
C          4.44400       -4.72300       -6.97900
C          4.56600       -3.41700       -6.21800
N          3.45800       -3.13400       -5.32800
C          2.11200       -3.15700       -5.62300
N          1.34900       -2.70800       -4.66300
C          2.25600       -2.45000       -3.63900
C          2.05500       -1.94600       -2.31800
O          0.97000       -1.58300       -1.83400
N          3.20700       -1.80700       -1.59800
C          4.44600       -2.11700       -2.10000
N          5.48500       -2.00000       -1.26300
N          4.67500       -2.55300       -3.34600
C          3.54200       -2.67600       -4.04200
P          7.24000       -6.13800       -7.80200
O          8.46300       -6.20600       -8.61900
O          6.23900       -7.21400       -8.05100
O          7.54200       -6.06100       -6.22200
C          8.53500       -5.14100       -5.72500
C          8.74300       -5.46400       -4.25800
O          7.60500       -4.99100       -3.49700
C          8.86600       -6.97000       -3.99100
O          9.95900       -7.12700       -3.05400
C          7.57900       -7.33000       -3.25900
C          7.26900       -6.02500       -2.57400
N          5.86700       -5.87800       -2.28100
C          4.79600       -5.98600       -3.13800
N          3.65300       -5.74200       -2.57900
C          3.99400       -5.32700       -1.29700
C          3.17900       -4.88500       -0.23000
O          1.94700       -4.69200       -0.25100
N          3.89000       -4.60300        0.90900
C          5.23000       -4.80500        1.03400
N          5.77200       -4.61500        2.25400
N          6.04200       -5.16600        0.04500
C          5.35100       -5.42200       -1.08600
P         10.83500       -8.47000       -3.10400
O         11.91100       -8.23300       -2.09400
O         11.38200       -8.71700       -4.46700
O          9.79700       -9.59800       -2.67700
C          9.96100      -10.94500       -3.17800
C          9.42100      -11.74500       -2.00300
O          8.01500      -11.47900       -1.81100
C          9.43100      -13.25800       -2.18500
O         10.75400      -13.71900       -1.85600
C          8.37800      -13.71700       -1.19100
C          7.48400      -12.51700       -0.98100
N          6.09000      -12.78500       -1.40300
C          5.04700      -12.34000       -0.62400
O          5.24600      -11.84600        0.48600
N          3.77500      -12.53100       -1.10500
C          3.52500      -13.09500       -2.31300
O          2.30500      -13.20400       -2.67100
C          4.61200      -13.48200       -3.14100
C          4.41000      -13.96000       -4.54300
C          5.85600      -13.30500       -2.65300
Na         0.19000        3.43100       -0.66800
Na         0.29000        6.81100       -1.36300
Na         0.27400       -4.21500        1.26000
Ca        -9.18500        6.86900       -2.93000
Ca        -3.36200       -4.98800      -11.30600
Na         0.30400       -0.23400        0.00300
Ca        -1.35500        8.87700        7.87100
Ca         9.71100        6.76100        0.24500
O         -2.91100        9.19600        6.09800
O         -8.15500        6.51300       -0.80800
O         -6.43500       12.32300        9.34600
O         -9.70900       -3.19500       -9.46700
O         -3.53600        5.44900        9.80900
O        -13.14500        5.31900        2.03000
O         -0.43500       -5.06400       -7.08300
O         -4.42200      -10.71100       -4.83300
O         -5.40900       10.56600        8.08900
O        -11.41000        2.92300       -3.97800
O         -9.72100        1.32500        6.21800
O         -7.83900        0.26500        3.10800
O          3.89400      -10.33200       -4.54300
O         -8.69700       -3.01900       -0.31900
O        -14.01000        1.56500       -2.79700
O        -14.27900        4.67400       15.77000
O        -17.41700        6.17000       11.70200
O         -6.02900      -12.41800       -8.42600
O          3.42200      -11.07800       -6.80300
O          2.48500       -7.49400       -6.12900
O         -6.68400       -9.71200       -3.48700
O         -4.17300       -7.47300        4.00600
O        -15.83100       10.43100       10.05800
O         -2.50300       -7.21600      -10.79800
O         -4.00200       -7.53300        1.31800
O         -8.62000       15.03900        9.73000
O        -15.82700        7.91000       14.03900
O        -11.94100       -1.18800        1.93000
O         -7.93100       -7.04600       -9.51200
O        -10.28300       -8.56600       -5.73800
O        -14.38900        9.05600       11.39300
O         -5.30600        4.38600       11.84100
O         -2.69400       10.66700        8.71800
O         -1.95000        7.70600        9.87500
O         -7.37900        1.43200        6.51700
O          0.70400      -10.56900      -10.22100
O        -13.30100       -3.57500       -3.09900
O        -11.32300       -5.27900       -3.22600
O         -5.80900        9.93400       10.36700
O        -11.38100       11.20200       10.17400
O         -8.65000       11.83900        8.64600
O        -14.23700       -2.00300       -0.31200
O         -7.36500       -6.96500       -3.23900
O        -10.19100       -6.94600       -9.48900
O         -7.77700      -10.01700       -7.07700
O        -11.29900      -10.36000       -4.57100
O         -1.98400        6.58600        7.08600
O          2.86100        9.01100        7.54700
O          8.19900        7.86400        1.70800
O          6.75100        2.63400        4.88800
O         -3.19400        2.05500       15.24100
O         -5.14000        3.15300        6.23700
O         11.72500        3.46000        2.71900
O          7.06000        1.82300        7.49800
O         13.27600        6.89900        3.26200
O         18.61900       -0.96400        5.56900
O          1.50300        5.27200       13.61700
O         -0.70100        1.01700       15.36700
O          5.08800       -1.26100       12.85500
O          2.90900        2.94500       13.10200
O         12.97100        2.10600       11.77500
O         16.32800       -1.75800        5.35800
O         -5.90900        1.21800       13.37800
O         -5.22300        0.94400       12.43300
O          8.43500        4.88500        1.21900
O          0.57400        7.72400        7.11100
O         -6.61100       -0.86000        4.97600
O         10.11900        8.82500        5.38800
O         10.93200        5.87100        2.04100
O          5.62200        0.70900       11.12400
O         -4.29400       -5.29500        8.90600
O          2.00000        0.78300       13.05200
O         -8.11600       -2.91100        2.16500
O         -8.32200       -4.30700        2.35300
O          3.70600        1.72100        8.10700
O         -1.77900       -0.23200       13.80800
O         -7.87800       -5.63500       -0.72000
O          5.24000        2.48600       13.02000
O          0.63600        2.67400       13.28400
O          2.10400        2.15300       11.15100
O        -11.84200       -3.07100        7.31200
O          8.62300        5.63600       -1.56000
O          3.04500       -5.10500       21.92300
O          7.84000       -1.44500       -6.35200
O         15.11900        1.10100        2.01700
O          8.16600       -2.31100       -2.51200
O         13.74300        4.60400       -0.23600
O          2.37900       -0.73200        8.48300
O         11.47000       -5.81700       18.20300
O         10.32100       -3.30800       -1.47900
O         12.30100        3.88300       -4.31400
O          7.73600       -3.44000       13.79100
O         13.72700        1.89600       -0.22500
O         11.43600        6.05600       -1.11800
O         12.48200       -1.93100       -2.43500
O          9.96300       -9.59800       14.93000
O          8.26900       -5.76100        6.68100
O         13.99400       -1.57900        4.84400
O         10.58300        0.39700        9.37100
O         13.75600       -4.54500       -0.80600
O          6.76400       -9.09200        9.05800
O         10.83000       -3.60800       18.73400
O          5.88900        4.28700       -9.21400
O          4.98200        1.88500       -8.66700
O         14.60900        3.52800       -4.18300
O          9.11600      -11.57700       11.03400
O         12.31800       -3.64400       16.69000
O          0.62300      -14.67100       -4.31600
O         -7.57000        7.17900       -4.68000
O          5.46100        0.08600       -6.71100
O         -6.57500        1.07700       -5.54900
O         -7.04900       -0.81100      -12.38000
O          2.41000        2.76200       -8.94600
O         -4.99800       -3.52400      -10.24000
O         -3.20400       -2.95600      -12.55800
O         -2.38100        5.60800      -10.32300
O         -4.21500        1.22500      -14.03500
O         -3.24100       -2.48600       -7.40900
O         -0.21300        4.17700       -9.51500
O         -5.39700       -6.22000      -11.10300
O         -2.39100       -4.36800       -9.18000
O          4.77400       -7.91500       -5.78100
O          8.42700       -5.65100        3.55200
O         -6.76600       -0.72400       -7.57700
O         -9.57400        6.61500       -9.15200
O          7.67300      -13.57500       -5.81700
O          4.85300       -3.23400      -13.39900
O        -15.96200       -5.21100       -6.16900
O        -17.53200       -2.93100       -4.80800
O          8.39300       -3.52300        0.34300
O        -12.88400        5.28400      -10.48000
O         10.66000       -9.77600       -6.44900
O          9.87200       -8.84800       -7.26200
O          6.81200       -3.61200      -11.70400
O          3.89800        0.56900      -10.92400
O          9.81200       -4.30800       -9.52300
O         -8.06300        4.70400       -3.06600
O          1.46800       -6.43700       -8.93000
O        -15.51000       -3.90800       -3.92600
O         -1.15100       -5.06600      -12.05100
O         11.74400      -15.97700       -0.90900
O        -10.26900        5.80400       -4.81400
O        -10.35000        6.15300       -5.07600
O         13.16300       -8.90600       -6.79300
O          3.85400       -7.89700       -8.46100
O          6.94000       -9.81400       -8.48500
O         13.54500       -6.15800       -3.76600
O        -12.36600        4.37200       -7.76200
